3552

Cu       -18.05000      -12.63500        1.80500
Cu       -16.24500      -14.44000        1.80500
Cu       -16.24500      -12.63500        0.00000
Cu       -16.24500      -12.63500        3.61000
Cu       -18.05000       -9.02500       -1.80500
Cu       -16.24500      -10.83000       -1.80500
Cu       -16.24500       -9.02500       -3.61000
Cu       -18.05000      -10.83000        0.00000
Cu       -18.05000       -9.02500        1.80500
Cu       -16.24500      -10.83000        1.80500
Cu       -16.24500       -9.02500        0.00000
Cu       -18.05000      -10.83000        3.61000
Cu       -18.05000       -9.02500        5.41500
Cu       -16.24500      -10.83000        5.41500
Cu       -16.24500       -9.02500        3.61000
Cu       -16.24500       -9.02500        7.22000
Cu       -18.05000       -5.41500       -5.41500
Cu       -16.24500       -7.22000       -5.41500
Cu       -16.24500       -5.41500       -7.22000
Cu       -18.05000       -7.22000       -3.61000
Cu       -18.05000       -5.41500       -1.80500
Cu       -16.24500       -7.22000       -1.80500
Cu       -16.24500       -5.41500       -3.61000
Cu       -18.05000       -7.22000        0.00000
Cu       -18.05000       -5.41500        1.80500
Cu       -16.24500       -7.22000        1.80500
Cu       -16.24500       -5.41500        0.00000
Cu       -18.05000       -7.22000        3.61000
Cu       -18.05000       -5.41500        5.41500
Cu       -16.24500       -7.22000        5.41500
Cu       -16.24500       -5.41500        3.61000
Cu       -18.05000       -7.22000        7.22000
Cu       -18.05000       -5.41500        9.02500
Cu       -16.24500       -7.22000        9.02500
Cu       -16.24500       -5.41500        7.22000
Cu       -16.24500       -5.41500       10.83000
Cu       -18.05000       -1.80500       -9.02500
Cu       -16.24500       -3.61000       -9.02500
Cu       -16.24500       -1.80500      -10.83000
Cu       -18.05000       -3.61000       -7.22000
Cu       -18.05000       -1.80500       -5.41500
Cu       -16.24500       -3.61000       -5.41500
Cu       -16.24500       -1.80500       -7.22000
Cu       -18.05000       -3.61000       -3.61000
Cu       -18.05000       -1.80500       -1.80500
Cu       -16.24500       -3.61000       -1.80500
Cu       -16.24500       -1.80500       -3.61000
Cu       -18.05000       -3.61000        0.00000
Cu       -18.05000       -1.80500        1.80500
Cu       -16.24500       -3.61000        1.80500
Cu       -16.24500       -1.80500        0.00000
Cu       -18.05000       -3.61000        3.61000
Cu       -18.05000       -1.80500        5.41500
Cu       -16.24500       -3.61000        5.41500
Cu       -16.24500       -1.80500        3.61000
Cu       -18.05000       -3.61000        7.22000
Cu       -18.05000       -1.80500        9.02500
Cu       -16.24500       -3.61000        9.02500
Cu       -16.24500       -1.80500        7.22000
Cu       -18.05000       -3.61000       10.83000
Cu       -18.05000       -1.80500       12.63500
Cu       -16.24500       -3.61000       12.63500
Cu       -16.24500       -1.80500       10.83000
Cu       -16.24500       -1.80500       14.44000
Cu       -18.05000        1.80500      -12.63500
Cu       -16.24500       -0.00000      -12.63500
Cu       -16.24500        1.80500      -14.44000
Cu       -18.05000       -0.00000      -10.83000
Cu       -18.05000        1.80500       -9.02500
Cu       -16.24500       -0.00000       -9.02500
Cu       -16.24500        1.80500      -10.83000
Cu       -18.05000       -0.00000       -7.22000
Cu       -18.05000        1.80500       -5.41500
Cu       -16.24500       -0.00000       -5.41500
Cu       -16.24500        1.80500       -7.22000
Cu       -18.05000       -0.00000       -3.61000
Cu       -18.05000        1.80500       -1.80500
Cu       -16.24500       -0.00000       -1.80500
Cu       -16.24500        1.80500       -3.61000
Cu       -18.05000        0.00000        0.00000
Cu       -18.05000        1.80500        1.80500
Cu       -16.24500        0.00000        1.80500
Cu       -16.24500        1.80500        0.00000
Cu       -18.05000        0.00000        3.61000
Cu       -18.05000        1.80500        5.41500
Cu       -16.24500        0.00000        5.41500
Cu       -16.24500        1.80500        3.61000
Cu       -18.05000        0.00000        7.22000
Cu       -18.05000        1.80500        9.02500
Cu       -16.24500        0.00000        9.02500
Cu       -16.24500        1.80500        7.22000
Cu       -18.05000        0.00000       10.83000
Cu       -18.05000        1.80500       12.63500
Cu       -16.24500        0.00000       12.63500
Cu       -16.24500        1.80500       10.83000
Cu       -18.05000        0.00000       14.44000
Cu       -16.24500        0.00000       16.24500
Cu       -16.24500        1.80500       14.44000
Cu       -16.24500        3.61000      -12.63500
Cu       -18.05000        3.61000      -10.83000
Cu       -18.05000        5.41500       -9.02500
Cu       -16.24500        3.61000       -9.02500
Cu       -16.24500        5.41500      -10.83000
Cu       -18.05000        3.61000       -7.22000
Cu       -18.05000        5.41500       -5.41500
Cu       -16.24500        3.61000       -5.41500
Cu       -16.24500        5.41500       -7.22000
Cu       -18.05000        3.61000       -3.61000
Cu       -18.05000        5.41500       -1.80500
Cu       -16.24500        3.61000       -1.80500
Cu       -16.24500        5.41500       -3.61000
Cu       -18.05000        3.61000        0.00000
Cu       -18.05000        5.41500        1.80500
Cu       -16.24500        3.61000        1.80500
Cu       -16.24500        5.41500        0.00000
Cu       -18.05000        3.61000        3.61000
Cu       -18.05000        5.41500        5.41500
Cu       -16.24500        3.61000        5.41500
Cu       -16.24500        5.41500        3.61000
Cu       -18.05000        3.61000        7.22000
Cu       -18.05000        5.41500        9.02500
Cu       -16.24500        3.61000        9.02500
Cu       -16.24500        5.41500        7.22000
Cu       -18.05000        3.61000       10.83000
Cu       -16.24500        3.61000       12.63500
Cu       -16.24500        5.41500       10.83000
Cu       -16.24500        7.22000       -9.02500
Cu       -18.05000        7.22000       -7.22000
Cu       -18.05000        9.02500       -5.41500
Cu       -16.24500        7.22000       -5.41500
Cu       -16.24500        9.02500       -7.22000
Cu       -18.05000        7.22000       -3.61000
Cu       -18.05000        9.02500       -1.80500
Cu       -16.24500        7.22000       -1.80500
Cu       -16.24500        9.02500       -3.61000
Cu       -18.05000        7.22000        0.00000
Cu       -18.05000        9.02500        1.80500
Cu       -16.24500        7.22000        1.80500
Cu       -16.24500        9.02500        0.00000
Cu       -18.05000        7.22000        3.61000
Cu       -18.05000        9.02500        5.41500
Cu       -16.24500        7.22000        5.41500
Cu       -16.24500        9.02500        3.61000
Cu       -18.05000        7.22000        7.22000
Cu       -16.24500        7.22000        9.02500
Cu       -16.24500        9.02500        7.22000
Cu       -16.24500       10.83000       -5.41500
Cu       -18.05000       10.83000       -3.61000
Cu       -18.05000       12.63500       -1.80500
Cu       -16.24500       10.83000       -1.80500
Cu       -16.24500       12.63500       -3.61000
Cu       -18.05000       10.83000        0.00000
Cu       -18.05000       12.63500        1.80500
Cu       -16.24500       10.83000        1.80500
Cu       -16.24500       12.63500        0.00000
Cu       -18.05000       10.83000        3.61000
Cu       -16.24500       10.83000        5.41500
Cu       -16.24500       12.63500        3.61000
Cu       -16.24500       14.44000       -1.80500
Cu       -18.05000       14.44000        0.00000
Cu       -16.24500       14.44000        1.80500
Cu       -16.24500       16.24500        0.00000
Cu       -14.44000      -16.24500        1.80500
Cu       -12.63500      -18.05000        1.80500
Cu       -12.63500      -16.24500        0.00000
Cu       -12.63500      -16.24500        3.61000
Cu       -14.44000      -12.63500       -1.80500
Cu       -12.63500      -14.44000       -1.80500
Cu       -12.63500      -12.63500       -3.61000
Cu       -14.44000      -14.44000        0.00000
Cu       -14.44000      -12.63500        1.80500
Cu       -12.63500      -14.44000        1.80500
Cu       -12.63500      -12.63500        0.00000
Cu       -14.44000      -14.44000        3.61000
Cu       -14.44000      -12.63500        5.41500
Cu       -12.63500      -14.44000        5.41500
Cu       -12.63500      -12.63500        3.61000
Cu       -12.63500      -12.63500        7.22000
Cu       -14.44000       -9.02500       -5.41500
Cu       -12.63500      -10.83000       -5.41500
Cu       -12.63500       -9.02500       -7.22000
Cu       -14.44000      -10.83000       -3.61000
Cu       -14.44000       -9.02500       -1.80500
Cu       -12.63500      -10.83000       -1.80500
Cu       -12.63500       -9.02500       -3.61000
Cu       -14.44000      -10.83000        0.00000
Cu       -14.44000       -9.02500        1.80500
Cu       -12.63500      -10.83000        1.80500
Cu       -12.63500       -9.02500        0.00000
Cu       -14.44000      -10.83000        3.61000
Cu       -14.44000       -9.02500        5.41500
Cu       -12.63500      -10.83000        5.41500
Cu       -12.63500       -9.02500        3.61000
Cu       -14.44000      -10.83000        7.22000
Cu       -14.44000       -9.02500        9.02500
Cu       -12.63500      -10.83000        9.02500
Cu       -12.63500       -9.02500        7.22000
Cu       -12.63500       -9.02500       10.83000
Cu       -14.44000       -5.41500       -9.02500
Cu       -12.63500       -7.22000       -9.02500
Cu       -12.63500       -5.41500      -10.83000
Cu       -14.44000       -7.22000       -7.22000
Cu       -14.44000       -5.41500       -5.41500
Cu       -12.63500       -7.22000       -5.41500
Cu       -12.63500       -5.41500       -7.22000
Cu       -14.44000       -7.22000       -3.61000
Cu       -14.44000       -5.41500       -1.80500
Cu       -12.63500       -7.22000       -1.80500
Cu       -12.63500       -5.41500       -3.61000
Cu       -14.44000       -7.22000        0.00000
Cu       -14.44000       -5.41500        1.80500
Cu       -12.63500       -7.22000        1.80500
Cu       -12.63500       -5.41500        0.00000
Cu       -14.44000       -7.22000        3.61000
Cu       -14.44000       -5.41500        5.41500
Cu       -12.63500       -7.22000        5.41500
Cu       -12.63500       -5.41500        3.61000
Cu       -14.44000       -7.22000        7.22000
Cu       -14.44000       -5.41500        9.02500
Cu       -12.63500       -7.22000        9.02500
Cu       -12.63500       -5.41500        7.22000
Cu       -14.44000       -7.22000       10.83000
Cu       -14.44000       -5.41500       12.63500
Cu       -12.63500       -7.22000       12.63500
Cu       -12.63500       -5.41500       10.83000
Cu       -12.63500       -5.41500       14.44000
Cu       -14.44000       -1.80500      -12.63500
Cu       -12.63500       -3.61000      -12.63500
Cu       -12.63500       -1.80500      -14.44000
Cu       -14.44000       -3.61000      -10.83000
Cu       -14.44000       -1.80500       -9.02500
Cu       -12.63500       -3.61000       -9.02500
Cu       -12.63500       -1.80500      -10.83000
Cu       -14.44000       -3.61000       -7.22000
Cu       -14.44000       -1.80500       -5.41500
Cu       -12.63500       -3.61000       -5.41500
Cu       -12.63500       -1.80500       -7.22000
Cu       -14.44000       -3.61000       -3.61000
Cu       -14.44000       -1.80500       -1.80500
Cu       -12.63500       -3.61000       -1.80500
Cu       -12.63500       -1.80500       -3.61000
Cu       -14.44000       -3.61000        0.00000
Cu       -14.44000       -1.80500        1.80500
Cu       -12.63500       -3.61000        1.80500
Cu       -12.63500       -1.80500        0.00000
Cu       -14.44000       -3.61000        3.61000
Cu       -14.44000       -1.80500        5.41500
Cu       -12.63500       -3.61000        5.41500
Cu       -12.63500       -1.80500        3.61000
Cu       -14.44000       -3.61000        7.22000
Cu       -14.44000       -1.80500        9.02500
Cu       -12.63500       -3.61000        9.02500
Cu       -12.63500       -1.80500        7.22000
Cu       -14.44000       -3.61000       10.83000
Cu       -14.44000       -1.80500       12.63500
Cu       -12.63500       -3.61000       12.63500
Cu       -12.63500       -1.80500       10.83000
Cu       -14.44000       -3.61000       14.44000
Cu       -14.44000       -1.80500       16.24500
Cu       -12.63500       -3.61000       16.24500
Cu       -12.63500       -1.80500       14.44000
Cu       -12.63500       -1.80500       18.05000
Cu       -14.44000        1.80500      -16.24500
Cu       -12.63500       -0.00000      -16.24500
Cu       -12.63500        1.80500      -18.05000
Cu       -14.44000       -0.00000      -14.44000
Cu       -14.44000        1.80500      -12.63500
Cu       -12.63500       -0.00000      -12.63500
Cu       -12.63500        1.80500      -14.44000
Cu       -14.44000       -0.00000      -10.83000
Cu       -14.44000        1.80500       -9.02500
Cu       -12.63500       -0.00000       -9.02500
Cu       -12.63500        1.80500      -10.83000
Cu       -14.44000       -0.00000       -7.22000
Cu       -14.44000        1.80500       -5.41500
Cu       -12.63500       -0.00000       -5.41500
Cu       -12.63500        1.80500       -7.22000
Cu       -14.44000       -0.00000       -3.61000
Cu       -14.44000        1.80500       -1.80500
Cu       -12.63500       -0.00000       -1.80500
Cu       -12.63500        1.80500       -3.61000
Cu       -14.44000        0.00000        0.00000
Cu       -14.44000        1.80500        1.80500
Cu       -12.63500        0.00000        1.80500
Cu       -12.63500        1.80500        0.00000
Cu       -14.44000        0.00000        3.61000
Cu       -14.44000        1.80500        5.41500
Cu       -12.63500        0.00000        5.41500
Cu       -12.63500        1.80500        3.61000
Cu       -14.44000        0.00000        7.22000
Cu       -14.44000        1.80500        9.02500
Cu       -12.63500        0.00000        9.02500
Cu       -12.63500        1.80500        7.22000
Cu       -14.44000        0.00000       10.83000
Cu       -14.44000        1.80500       12.63500
Cu       -12.63500        0.00000       12.63500
Cu       -12.63500        1.80500       10.83000
Cu       -14.44000        0.00000       14.44000
Cu       -14.44000        1.80500       16.24500
Cu       -12.63500        0.00000       16.24500
Cu       -12.63500        1.80500       14.44000
Cu       -14.44000        0.00000       18.05000
Cu       -12.63500        0.00000       19.85500
Cu       -12.63500        1.80500       18.05000
Cu       -12.63500        3.61000      -16.24500
Cu       -14.44000        3.61000      -14.44000
Cu       -14.44000        5.41500      -12.63500
Cu       -12.63500        3.61000      -12.63500
Cu       -12.63500        5.41500      -14.44000
Cu       -14.44000        3.61000      -10.83000
Cu       -14.44000        5.41500       -9.02500
Cu       -12.63500        3.61000       -9.02500
Cu       -12.63500        5.41500      -10.83000
Cu       -14.44000        3.61000       -7.22000
Cu       -14.44000        5.41500       -5.41500
Cu       -12.63500        3.61000       -5.41500
Cu       -12.63500        5.41500       -7.22000
Cu       -14.44000        3.61000       -3.61000
Cu       -14.44000        5.41500       -1.80500
Cu       -12.63500        3.61000       -1.80500
Cu       -12.63500        5.41500       -3.61000
Cu       -14.44000        3.61000        0.00000
Cu       -14.44000        5.41500        1.80500
Cu       -12.63500        3.61000        1.80500
Cu       -12.63500        5.41500        0.00000
Cu       -14.44000        3.61000        3.61000
Cu       -14.44000        5.41500        5.41500
Cu       -12.63500        3.61000        5.41500
Cu       -12.63500        5.41500        3.61000
Cu       -14.44000        3.61000        7.22000
Cu       -14.44000        5.41500        9.02500
Cu       -12.63500        3.61000        9.02500
Cu       -12.63500        5.41500        7.22000
Cu       -14.44000        3.61000       10.83000
Cu       -14.44000        5.41500       12.63500
Cu       -12.63500        3.61000       12.63500
Cu       -12.63500        5.41500       10.83000
Cu       -14.44000        3.61000       14.44000
Cu       -12.63500        3.61000       16.24500
Cu       -12.63500        5.41500       14.44000
Cu       -12.63500        7.22000      -12.63500
Cu       -14.44000        7.22000      -10.83000
Cu       -14.44000        9.02500       -9.02500
Cu       -12.63500        7.22000       -9.02500
Cu       -12.63500        9.02500      -10.83000
Cu       -14.44000        7.22000       -7.22000
Cu       -14.44000        9.02500       -5.41500
Cu       -12.63500        7.22000       -5.41500
Cu       -12.63500        9.02500       -7.22000
Cu       -14.44000        7.22000       -3.61000
Cu       -14.44000        9.02500       -1.80500
Cu       -12.63500        7.22000       -1.80500
Cu       -12.63500        9.02500       -3.61000
Cu       -14.44000        7.22000        0.00000
Cu       -14.44000        9.02500        1.80500
Cu       -12.63500        7.22000        1.80500
Cu       -12.63500        9.02500        0.00000
Cu       -14.44000        7.22000        3.61000
Cu       -14.44000        9.02500        5.41500
Cu       -12.63500        7.22000        5.41500
Cu       -12.63500        9.02500        3.61000
Cu       -14.44000        7.22000        7.22000
Cu       -14.44000        9.02500        9.02500
Cu       -12.63500        7.22000        9.02500
Cu       -12.63500        9.02500        7.22000
Cu       -14.44000        7.22000       10.83000
Cu       -12.63500        7.22000       12.63500
Cu       -12.63500        9.02500       10.83000
Cu       -12.63500       10.83000       -9.02500
Cu       -14.44000       10.83000       -7.22000
Cu       -14.44000       12.63500       -5.41500
Cu       -12.63500       10.83000       -5.41500
Cu       -12.63500       12.63500       -7.22000
Cu       -14.44000       10.83000       -3.61000
Cu       -14.44000       12.63500       -1.80500
Cu       -12.63500       10.83000       -1.80500
Cu       -12.63500       12.63500       -3.61000
Cu       -14.44000       10.83000        0.00000
Cu       -14.44000       12.63500        1.80500
Cu       -12.63500       10.83000        1.80500
Cu       -12.63500       12.63500        0.00000
Cu       -14.44000       10.83000        3.61000
Cu       -14.44000       12.63500        5.41500
Cu       -12.63500       10.83000        5.41500
Cu       -12.63500       12.63500        3.61000
Cu       -14.44000       10.83000        7.22000
Cu       -12.63500       10.83000        9.02500
Cu       -12.63500       12.63500        7.22000
Cu       -12.63500       14.44000       -5.41500
Cu       -14.44000       14.44000       -3.61000
Cu       -14.44000       16.24500       -1.80500
Cu       -12.63500       14.44000       -1.80500
Cu       -12.63500       16.24500       -3.61000
Cu       -14.44000       14.44000        0.00000
Cu       -14.44000       16.24500        1.80500
Cu       -12.63500       14.44000        1.80500
Cu       -12.63500       16.24500        0.00000
Cu       -14.44000       14.44000        3.61000
Cu       -12.63500       14.44000        5.41500
Cu       -12.63500       16.24500        3.61000
Cu       -12.63500       18.05000       -1.80500
Cu       -14.44000       18.05000        0.00000
Cu       -12.63500       18.05000        1.80500
Cu       -12.63500       19.85500        0.00000
Cu       -10.83000      -16.24500       -1.80500
Cu        -9.02500      -18.05000       -1.80500
Cu        -9.02500      -16.24500       -3.61000
Cu       -10.83000      -18.05000        0.00000
Cu       -10.83000      -16.24500        1.80500
Cu        -9.02500      -18.05000        1.80500
Cu        -9.02500      -16.24500        0.00000
Cu       -10.83000      -18.05000        3.61000
Cu       -10.83000      -16.24500        5.41500
Cu        -9.02500      -18.05000        5.41500
Cu        -9.02500      -16.24500        3.61000
Cu        -9.02500      -16.24500        7.22000
Cu       -10.83000      -12.63500       -5.41500
Cu        -9.02500      -14.44000       -5.41500
Cu        -9.02500      -12.63500       -7.22000
Cu       -10.83000      -14.44000       -3.61000
Cu       -10.83000      -12.63500       -1.80500
Cu        -9.02500      -14.44000       -1.80500
Cu        -9.02500      -12.63500       -3.61000
Cu       -10.83000      -14.44000        0.00000
Cu       -10.83000      -12.63500        1.80500
Cu        -9.02500      -14.44000        1.80500
Cu        -9.02500      -12.63500        0.00000
Cu       -10.83000      -14.44000        3.61000
Cu       -10.83000      -12.63500        5.41500
Cu        -9.02500      -14.44000        5.41500
Cu        -9.02500      -12.63500        3.61000
Cu       -10.83000      -14.44000        7.22000
Cu       -10.83000      -12.63500        9.02500
Cu        -9.02500      -14.44000        9.02500
Cu        -9.02500      -12.63500        7.22000
Cu        -9.02500      -12.63500       10.83000
Cu       -10.83000       -9.02500       -9.02500
Cu        -9.02500      -10.83000       -9.02500
Cu        -9.02500       -9.02500      -10.83000
Cu       -10.83000      -10.83000       -7.22000
Cu       -10.83000       -9.02500       -5.41500
Cu        -9.02500      -10.83000       -5.41500
Cu        -9.02500       -9.02500       -7.22000
Cu       -10.83000      -10.83000       -3.61000
Cu       -10.83000       -9.02500       -1.80500
Cu        -9.02500      -10.83000       -1.80500
Cu        -9.02500       -9.02500       -3.61000
Cu       -10.83000      -10.83000        0.00000
Cu       -10.83000       -9.02500        1.80500
Cu        -9.02500      -10.83000        1.80500
Cu        -9.02500       -9.02500        0.00000
Cu       -10.83000      -10.83000        3.61000
Cu       -10.83000       -9.02500        5.41500
Cu        -9.02500      -10.83000        5.41500
Cu        -9.02500       -9.02500        3.61000
Cu       -10.83000      -10.83000        7.22000
Cu       -10.83000       -9.02500        9.02500
Cu        -9.02500      -10.83000        9.02500
Cu        -9.02500       -9.02500        7.22000
Cu       -10.83000      -10.83000       10.83000
Cu       -10.83000       -9.02500       12.63500
Cu        -9.02500      -10.83000       12.63500
Cu        -9.02500       -9.02500       10.83000
Cu        -9.02500       -9.02500       14.44000
Cu       -10.83000       -5.41500      -12.63500
Cu        -9.02500       -7.22000      -12.63500
Cu        -9.02500       -5.41500      -14.44000
Cu       -10.83000       -7.22000      -10.83000
Cu       -10.83000       -5.41500       -9.02500
Cu        -9.02500       -7.22000       -9.02500
Cu        -9.02500       -5.41500      -10.83000
Cu       -10.83000       -7.22000       -7.22000
Cu       -10.83000       -5.41500       -5.41500
Cu        -9.02500       -7.22000       -5.41500
Cu        -9.02500       -5.41500       -7.22000
Cu       -10.83000       -7.22000       -3.61000
Cu       -10.83000       -5.41500       -1.80500
Cu        -9.02500       -7.22000       -1.80500
Cu        -9.02500       -5.41500       -3.61000
Cu       -10.83000       -7.22000        0.00000
Cu       -10.83000       -5.41500        1.80500
Cu        -9.02500       -7.22000        1.80500
Cu        -9.02500       -5.41500        0.00000
Cu       -10.83000       -7.22000        3.61000
Cu       -10.83000       -5.41500        5.41500
Cu        -9.02500       -7.22000        5.41500
Cu        -9.02500       -5.41500        3.61000
Cu       -10.83000       -7.22000        7.22000
Cu       -10.83000       -5.41500        9.02500
Cu        -9.02500       -7.22000        9.02500
Cu        -9.02500       -5.41500        7.22000
Cu       -10.83000       -7.22000       10.83000
Cu       -10.83000       -5.41500       12.63500
Cu        -9.02500       -7.22000       12.63500
Cu        -9.02500       -5.41500       10.83000
Cu       -10.83000       -7.22000       14.44000
Cu       -10.83000       -5.41500       16.24500
Cu        -9.02500       -7.22000       16.24500
Cu        -9.02500       -5.41500       14.44000
Cu        -9.02500       -5.41500       18.05000
Cu       -10.83000       -1.80500      -16.24500
Cu        -9.02500       -3.61000      -16.24500
Cu        -9.02500       -1.80500      -18.05000
Cu       -10.83000       -3.61000      -14.44000
Cu       -10.83000       -1.80500      -12.63500
Cu        -9.02500       -3.61000      -12.63500
Cu        -9.02500       -1.80500      -14.44000
Cu       -10.83000       -3.61000      -10.83000
Cu       -10.83000       -1.80500       -9.02500
Cu        -9.02500       -3.61000       -9.02500
Cu        -9.02500       -1.80500      -10.83000
Cu       -10.83000       -3.61000       -7.22000
Cu       -10.83000       -1.80500       -5.41500
Cu        -9.02500       -3.61000       -5.41500
Cu        -9.02500       -1.80500       -7.22000
Cu       -10.83000       -3.61000       -3.61000
Cu       -10.83000       -1.80500       -1.80500
Cu        -9.02500       -3.61000       -1.80500
Cu        -9.02500       -1.80500       -3.61000
Cu       -10.83000       -3.61000        0.00000
Cu       -10.83000       -1.80500        1.80500
Cu        -9.02500       -3.61000        1.80500
Cu        -9.02500       -1.80500        0.00000
Cu       -10.83000       -3.61000        3.61000
Cu       -10.83000       -1.80500        5.41500
Cu        -9.02500       -3.61000        5.41500
Cu        -9.02500       -1.80500        3.61000
Cu       -10.83000       -3.61000        7.22000
Cu       -10.83000       -1.80500        9.02500
Cu        -9.02500       -3.61000        9.02500
Cu        -9.02500       -1.80500        7.22000
Cu       -10.83000       -3.61000       10.83000
Cu       -10.83000       -1.80500       12.63500
Cu        -9.02500       -3.61000       12.63500
Cu        -9.02500       -1.80500       10.83000
Cu       -10.83000       -3.61000       14.44000
Cu       -10.83000       -1.80500       16.24500
Cu        -9.02500       -3.61000       16.24500
Cu        -9.02500       -1.80500       14.44000
Cu       -10.83000       -3.61000       18.05000
Cu       -10.83000       -1.80500       19.85500
Cu        -9.02500       -3.61000       19.85500
Cu        -9.02500       -1.80500       18.05000
Cu       -10.83000       -0.00000      -18.05000
Cu       -10.83000        1.80500      -16.24500
Cu        -9.02500       -0.00000      -16.24500
Cu        -9.02500        1.80500      -18.05000
Cu       -10.83000       -0.00000      -14.44000
Cu       -10.83000        1.80500      -12.63500
Cu        -9.02500       -0.00000      -12.63500
Cu        -9.02500        1.80500      -14.44000
Cu       -10.83000       -0.00000      -10.83000
Cu       -10.83000        1.80500       -9.02500
Cu        -9.02500       -0.00000       -9.02500
Cu        -9.02500        1.80500      -10.83000
Cu       -10.83000       -0.00000       -7.22000
Cu       -10.83000        1.80500       -5.41500
Cu        -9.02500       -0.00000       -5.41500
Cu        -9.02500        1.80500       -7.22000
Cu       -10.83000       -0.00000       -3.61000
Cu       -10.83000        1.80500       -1.80500
Cu        -9.02500       -0.00000       -1.80500
Cu        -9.02500        1.80500       -3.61000
Cu       -10.83000        0.00000        0.00000
Cu       -10.83000        1.80500        1.80500
Cu        -9.02500        0.00000        1.80500
Cu        -9.02500        1.80500        0.00000
Cu       -10.83000        0.00000        3.61000
Cu       -10.83000        1.80500        5.41500
Cu        -9.02500        0.00000        5.41500
Cu        -9.02500        1.80500        3.61000
Cu       -10.83000        0.00000        7.22000
Cu       -10.83000        1.80500        9.02500
Cu        -9.02500        0.00000        9.02500
Cu        -9.02500        1.80500        7.22000
Cu       -10.83000        0.00000       10.83000
Cu       -10.83000        1.80500       12.63500
Cu        -9.02500        0.00000       12.63500
Cu        -9.02500        1.80500       10.83000
Cu       -10.83000        0.00000       14.44000
Cu       -10.83000        1.80500       16.24500
Cu        -9.02500        0.00000       16.24500
Cu        -9.02500        1.80500       14.44000
Cu       -10.83000        0.00000       18.05000
Cu       -10.83000        1.80500       19.85500
Cu        -9.02500        0.00000       19.85500
Cu        -9.02500        1.80500       18.05000
Cu       -10.83000        3.61000      -18.05000
Cu       -10.83000        5.41500      -16.24500
Cu        -9.02500        3.61000      -16.24500
Cu        -9.02500        5.41500      -18.05000
Cu       -10.83000        3.61000      -14.44000
Cu       -10.83000        5.41500      -12.63500
Cu        -9.02500        3.61000      -12.63500
Cu        -9.02500        5.41500      -14.44000
Cu       -10.83000        3.61000      -10.83000
Cu       -10.83000        5.41500       -9.02500
Cu        -9.02500        3.61000       -9.02500
Cu        -9.02500        5.41500      -10.83000
Cu       -10.83000        3.61000       -7.22000
Cu       -10.83000        5.41500       -5.41500
Cu        -9.02500        3.61000       -5.41500
Cu        -9.02500        5.41500       -7.22000
Cu       -10.83000        3.61000       -3.61000
Cu       -10.83000        5.41500       -1.80500
Cu        -9.02500        3.61000       -1.80500
Cu        -9.02500        5.41500       -3.61000
Cu       -10.83000        3.61000        0.00000
Cu       -10.83000        5.41500        1.80500
Cu        -9.02500        3.61000        1.80500
Cu        -9.02500        5.41500        0.00000
Cu       -10.83000        3.61000        3.61000
Cu       -10.83000        5.41500        5.41500
Cu        -9.02500        3.61000        5.41500
Cu        -9.02500        5.41500        3.61000
Cu       -10.83000        3.61000        7.22000
Cu       -10.83000        5.41500        9.02500
Cu        -9.02500        3.61000        9.02500
Cu        -9.02500        5.41500        7.22000
Cu       -10.83000        3.61000       10.83000
Cu       -10.83000        5.41500       12.63500
Cu        -9.02500        3.61000       12.63500
Cu        -9.02500        5.41500       10.83000
Cu       -10.83000        3.61000       14.44000
Cu       -10.83000        5.41500       16.24500
Cu        -9.02500        3.61000       16.24500
Cu        -9.02500        5.41500       14.44000
Cu       -10.83000        3.61000       18.05000
Cu        -9.02500        3.61000       19.85500
Cu        -9.02500        5.41500       18.05000
Cu        -9.02500        7.22000      -16.24500
Cu       -10.83000        7.22000      -14.44000
Cu       -10.83000        9.02500      -12.63500
Cu        -9.02500        7.22000      -12.63500
Cu        -9.02500        9.02500      -14.44000
Cu       -10.83000        7.22000      -10.83000
Cu       -10.83000        9.02500       -9.02500
Cu        -9.02500        7.22000       -9.02500
Cu        -9.02500        9.02500      -10.83000
Cu       -10.83000        7.22000       -7.22000
Cu       -10.83000        9.02500       -5.41500
Cu        -9.02500        7.22000       -5.41500
Cu        -9.02500        9.02500       -7.22000
Cu       -10.83000        7.22000       -3.61000
Cu       -10.83000        9.02500       -1.80500
Cu        -9.02500        7.22000       -1.80500
Cu        -9.02500        9.02500       -3.61000
Cu       -10.83000        7.22000        0.00000
Cu       -10.83000        9.02500        1.80500
Cu        -9.02500        7.22000        1.80500
Cu        -9.02500        9.02500        0.00000
Cu       -10.83000        7.22000        3.61000
Cu       -10.83000        9.02500        5.41500
Cu        -9.02500        7.22000        5.41500
Cu        -9.02500        9.02500        3.61000
Cu       -10.83000        7.22000        7.22000
Cu       -10.83000        9.02500        9.02500
Cu        -9.02500        7.22000        9.02500
Cu        -9.02500        9.02500        7.22000
Cu       -10.83000        7.22000       10.83000
Cu       -10.83000        9.02500       12.63500
Cu        -9.02500        7.22000       12.63500
Cu        -9.02500        9.02500       10.83000
Cu       -10.83000        7.22000       14.44000
Cu        -9.02500        7.22000       16.24500
Cu        -9.02500        9.02500       14.44000
Cu        -9.02500       10.83000      -12.63500
Cu       -10.83000       10.83000      -10.83000
Cu       -10.83000       12.63500       -9.02500
Cu        -9.02500       10.83000       -9.02500
Cu        -9.02500       12.63500      -10.83000
Cu       -10.83000       10.83000       -7.22000
Cu       -10.83000       12.63500       -5.41500
Cu        -9.02500       10.83000       -5.41500
Cu        -9.02500       12.63500       -7.22000
Cu       -10.83000       10.83000       -3.61000
Cu       -10.83000       12.63500       -1.80500
Cu        -9.02500       10.83000       -1.80500
Cu        -9.02500       12.63500       -3.61000
Cu       -10.83000       10.83000        0.00000
Cu       -10.83000       12.63500        1.80500
Cu        -9.02500       10.83000        1.80500
Cu        -9.02500       12.63500        0.00000
Cu       -10.83000       10.83000        3.61000
Cu       -10.83000       12.63500        5.41500
Cu        -9.02500       10.83000        5.41500
Cu        -9.02500       12.63500        3.61000
Cu       -10.83000       10.83000        7.22000
Cu       -10.83000       12.63500        9.02500
Cu        -9.02500       10.83000        9.02500
Cu        -9.02500       12.63500        7.22000
Cu       -10.83000       10.83000       10.83000
Cu        -9.02500       10.83000       12.63500
Cu        -9.02500       12.63500       10.83000
Cu        -9.02500       14.44000       -9.02500
Cu       -10.83000       14.44000       -7.22000
Cu       -10.83000       16.24500       -5.41500
Cu        -9.02500       14.44000       -5.41500
Cu        -9.02500       16.24500       -7.22000
Cu       -10.83000       14.44000       -3.61000
Cu       -10.83000       16.24500       -1.80500
Cu        -9.02500       14.44000       -1.80500
Cu        -9.02500       16.24500       -3.61000
Cu       -10.83000       14.44000        0.00000
Cu       -10.83000       16.24500        1.80500
Cu        -9.02500       14.44000        1.80500
Cu        -9.02500       16.24500        0.00000
Cu       -10.83000       14.44000        3.61000
Cu       -10.83000       16.24500        5.41500
Cu        -9.02500       14.44000        5.41500
Cu        -9.02500       16.24500        3.61000
Cu       -10.83000       14.44000        7.22000
Cu        -9.02500       14.44000        9.02500
Cu        -9.02500       16.24500        7.22000
Cu        -9.02500       18.05000       -5.41500
Cu       -10.83000       18.05000       -3.61000
Cu       -10.83000       19.85500       -1.80500
Cu        -9.02500       18.05000       -1.80500
Cu        -9.02500       19.85500       -3.61000
Cu       -10.83000       18.05000        0.00000
Cu       -10.83000       19.85500        1.80500
Cu        -9.02500       18.05000        1.80500
Cu        -9.02500       19.85500        0.00000
Cu       -10.83000       18.05000        3.61000
Cu        -9.02500       18.05000        5.41500
Cu        -9.02500       19.85500        3.61000
Cu        -7.22000      -16.24500       -5.41500
Cu        -5.41500      -18.05000       -5.41500
Cu        -5.41500      -16.24500       -7.22000
Cu        -7.22000      -18.05000       -3.61000
Cu        -7.22000      -16.24500       -1.80500
Cu        -5.41500      -18.05000       -1.80500
Cu        -5.41500      -16.24500       -3.61000
Cu        -7.22000      -18.05000        0.00000
Cu        -7.22000      -16.24500        1.80500
Cu        -5.41500      -18.05000        1.80500
Cu        -5.41500      -16.24500        0.00000
Cu        -7.22000      -18.05000        3.61000
Cu        -7.22000      -16.24500        5.41500
Cu        -5.41500      -18.05000        5.41500
Cu        -5.41500      -16.24500        3.61000
Cu        -7.22000      -18.05000        7.22000
Cu        -7.22000      -16.24500        9.02500
Cu        -5.41500      -18.05000        9.02500
Cu        -5.41500      -16.24500        7.22000
Cu        -5.41500      -16.24500       10.83000
Cu        -7.22000      -12.63500       -9.02500
Cu        -5.41500      -14.44000       -9.02500
Cu        -5.41500      -12.63500      -10.83000
Cu        -7.22000      -14.44000       -7.22000
Cu        -7.22000      -12.63500       -5.41500
Cu        -5.41500      -14.44000       -5.41500
Cu        -5.41500      -12.63500       -7.22000
Cu        -7.22000      -14.44000       -3.61000
Cu        -7.22000      -12.63500       -1.80500
Cu        -5.41500      -14.44000       -1.80500
Cu        -5.41500      -12.63500       -3.61000
Cu        -7.22000      -14.44000        0.00000
Cu        -7.22000      -12.63500        1.80500
Cu        -5.41500      -14.44000        1.80500
Cu        -5.41500      -12.63500        0.00000
Cu        -7.22000      -14.44000        3.61000
Cu        -7.22000      -12.63500        5.41500
Cu        -5.41500      -14.44000        5.41500
Cu        -5.41500      -12.63500        3.61000
Cu        -7.22000      -14.44000        7.22000
Cu        -7.22000      -12.63500        9.02500
Cu        -5.41500      -14.44000        9.02500
Cu        -5.41500      -12.63500        7.22000
Cu        -7.22000      -14.44000       10.83000
Cu        -7.22000      -12.63500       12.63500
Cu        -5.41500      -14.44000       12.63500
Cu        -5.41500      -12.63500       10.83000
Cu        -5.41500      -12.63500       14.44000
Cu        -7.22000       -9.02500      -12.63500
Cu        -5.41500      -10.83000      -12.63500
Cu        -5.41500       -9.02500      -14.44000
Cu        -7.22000      -10.83000      -10.83000
Cu        -7.22000       -9.02500       -9.02500
Cu        -5.41500      -10.83000       -9.02500
Cu        -5.41500       -9.02500      -10.83000
Cu        -7.22000      -10.83000       -7.22000
Cu        -7.22000       -9.02500       -5.41500
Cu        -5.41500      -10.83000       -5.41500
Cu        -5.41500       -9.02500       -7.22000
Cu        -7.22000      -10.83000       -3.61000
Cu        -7.22000       -9.02500       -1.80500
Cu        -5.41500      -10.83000       -1.80500
Cu        -5.41500       -9.02500       -3.61000
Cu        -7.22000      -10.83000        0.00000
Cu        -7.22000       -9.02500        1.80500
Cu        -5.41500      -10.83000        1.80500
Cu        -5.41500       -9.02500        0.00000
Cu        -7.22000      -10.83000        3.61000
Cu        -7.22000       -9.02500        5.41500
Cu        -5.41500      -10.83000        5.41500
Cu        -5.41500       -9.02500        3.61000
Cu        -7.22000      -10.83000        7.22000
Cu        -7.22000       -9.02500        9.02500
Cu        -5.41500      -10.83000        9.02500
Cu        -5.41500       -9.02500        7.22000
Cu        -7.22000      -10.83000       10.83000
Cu        -7.22000       -9.02500       12.63500
Cu        -5.41500      -10.83000       12.63500
Cu        -5.41500       -9.02500       10.83000
Cu        -7.22000      -10.83000       14.44000
Cu        -7.22000       -9.02500       16.24500
Cu        -5.41500      -10.83000       16.24500
Cu        -5.41500       -9.02500       14.44000
Cu        -5.41500       -9.02500       18.05000
Cu        -7.22000       -5.41500      -16.24500
Cu        -5.41500       -7.22000      -16.24500
Cu        -5.41500       -5.41500      -18.05000
Cu        -7.22000       -7.22000      -14.44000
Cu        -7.22000       -5.41500      -12.63500
Cu        -5.41500       -7.22000      -12.63500
Cu        -5.41500       -5.41500      -14.44000
Cu        -7.22000       -7.22000      -10.83000
Cu        -7.22000       -5.41500       -9.02500
Cu        -5.41500       -7.22000       -9.02500
Cu        -5.41500       -5.41500      -10.83000
Cu        -7.22000       -7.22000       -7.22000
Cu        -7.22000       -5.41500       -5.41500
Cu        -5.41500       -7.22000       -5.41500
Cu        -5.41500       -5.41500       -7.22000
Cu        -7.22000       -7.22000       -3.61000
Cu        -7.22000       -5.41500       -1.80500
Cu        -5.41500       -7.22000       -1.80500
Cu        -5.41500       -5.41500       -3.61000
Cu        -7.22000       -7.22000        0.00000
Cu        -7.22000       -5.41500        1.80500
Cu        -5.41500       -7.22000        1.80500
Cu        -5.41500       -5.41500        0.00000
Cu        -7.22000       -7.22000        3.61000
Cu        -7.22000       -5.41500        5.41500
Cu        -5.41500       -7.22000        5.41500
Cu        -5.41500       -5.41500        3.61000
Cu        -7.22000       -7.22000        7.22000
Cu        -7.22000       -5.41500        9.02500
Cu        -5.41500       -7.22000        9.02500
Cu        -5.41500       -5.41500        7.22000
Cu        -7.22000       -7.22000       10.83000
Cu        -7.22000       -5.41500       12.63500
Cu        -5.41500       -7.22000       12.63500
Cu        -5.41500       -5.41500       10.83000
Cu        -7.22000       -7.22000       14.44000
Cu        -7.22000       -5.41500       16.24500
Cu        -5.41500       -7.22000       16.24500
Cu        -5.41500       -5.41500       14.44000
Cu        -7.22000       -7.22000       18.05000
Cu        -7.22000       -5.41500       19.85500
Cu        -5.41500       -7.22000       19.85500
Cu        -5.41500       -5.41500       18.05000
Cu        -7.22000       -3.61000      -18.05000
Cu        -7.22000       -1.80500      -16.24500
Cu        -5.41500       -3.61000      -16.24500
Cu        -5.41500       -1.80500      -18.05000
Cu        -7.22000       -3.61000      -14.44000
Cu        -7.22000       -1.80500      -12.63500
Cu        -5.41500       -3.61000      -12.63500
Cu        -5.41500       -1.80500      -14.44000
Cu        -7.22000       -3.61000      -10.83000
Cu        -7.22000       -1.80500       -9.02500
Cu        -5.41500       -3.61000       -9.02500
Cu        -5.41500       -1.80500      -10.83000
Cu        -7.22000       -3.61000       -7.22000
Cu        -7.22000       -1.80500       -5.41500
Cu        -5.41500       -3.61000       -5.41500
Cu        -5.41500       -1.80500       -7.22000
Cu        -7.22000       -3.61000       -3.61000
Cu        -7.22000       -1.80500       -1.80500
Cu        -5.41500       -3.61000       -1.80500
Cu        -5.41500       -1.80500       -3.61000
Cu        -7.22000       -3.61000        0.00000
Cu        -7.22000       -1.80500        1.80500
Cu        -5.41500       -3.61000        1.80500
Cu        -5.41500       -1.80500        0.00000
Cu        -7.22000       -3.61000        3.61000
Cu        -7.22000       -1.80500        5.41500
Cu        -5.41500       -3.61000        5.41500
Cu        -5.41500       -1.80500        3.61000
Cu        -7.22000       -3.61000        7.22000
Cu        -7.22000       -1.80500        9.02500
Cu        -5.41500       -3.61000        9.02500
Cu        -5.41500       -1.80500        7.22000
Cu        -7.22000       -3.61000       10.83000
Cu        -7.22000       -1.80500       12.63500
Cu        -5.41500       -3.61000       12.63500
Cu        -5.41500       -1.80500       10.83000
Cu        -7.22000       -3.61000       14.44000
Cu        -7.22000       -1.80500       16.24500
Cu        -5.41500       -3.61000       16.24500
Cu        -5.41500       -1.80500       14.44000
Cu        -7.22000       -3.61000       18.05000
Cu        -7.22000       -1.80500       19.85500
Cu        -5.41500       -3.61000       19.85500
Cu        -5.41500       -1.80500       18.05000
Cu        -7.22000       -0.00000      -18.05000
Cu        -7.22000        1.80500      -16.24500
Cu        -5.41500       -0.00000      -16.24500
Cu        -5.41500        1.80500      -18.05000
Cu        -7.22000       -0.00000      -14.44000
Cu        -7.22000        1.80500      -12.63500
Cu        -5.41500       -0.00000      -12.63500
Cu        -5.41500        1.80500      -14.44000
Cu        -7.22000       -0.00000      -10.83000
Cu        -7.22000        1.80500       -9.02500
Cu        -5.41500       -0.00000       -9.02500
Cu        -5.41500        1.80500      -10.83000
Cu        -7.22000       -0.00000       -7.22000
Cu        -7.22000        1.80500       -5.41500
Cu        -5.41500       -0.00000       -5.41500
Cu        -5.41500        1.80500       -7.22000
Cu        -7.22000       -0.00000       -3.61000
Cu        -7.22000        1.80500       -1.80500
Cu        -5.41500       -0.00000       -1.80500
Cu        -5.41500        1.80500       -3.61000
Cu        -7.22000        0.00000        0.00000
Cu        -7.22000        1.80500        1.80500
Cu        -5.41500        0.00000        1.80500
Cu        -5.41500        1.80500        0.00000
Cu        -7.22000        0.00000        3.61000
Cu        -7.22000        1.80500        5.41500
Cu        -5.41500        0.00000        5.41500
Cu        -5.41500        1.80500        3.61000
Cu        -7.22000        0.00000        7.22000
Cu        -7.22000        1.80500        9.02500
Cu        -5.41500        0.00000        9.02500
Cu        -5.41500        1.80500        7.22000
Cu        -7.22000        0.00000       10.83000
Cu        -7.22000        1.80500       12.63500
Cu        -5.41500        0.00000       12.63500
Cu        -5.41500        1.80500       10.83000
Cu        -7.22000        0.00000       14.44000
Cu        -7.22000        1.80500       16.24500
Cu        -5.41500        0.00000       16.24500
Cu        -5.41500        1.80500       14.44000
Cu        -7.22000        0.00000       18.05000
Cu        -7.22000        1.80500       19.85500
Cu        -5.41500        0.00000       19.85500
Cu        -5.41500        1.80500       18.05000
Cu        -7.22000        3.61000      -18.05000
Cu        -7.22000        5.41500      -16.24500
Cu        -5.41500        3.61000      -16.24500
Cu        -5.41500        5.41500      -18.05000
Cu        -7.22000        3.61000      -14.44000
Cu        -7.22000        5.41500      -12.63500
Cu        -5.41500        3.61000      -12.63500
Cu        -5.41500        5.41500      -14.44000
Cu        -7.22000        3.61000      -10.83000
Cu        -7.22000        5.41500       -9.02500
Cu        -5.41500        3.61000       -9.02500
Cu        -5.41500        5.41500      -10.83000
Cu        -7.22000        3.61000       -7.22000
Cu        -7.22000        5.41500       -5.41500
Cu        -5.41500        3.61000       -5.41500
Cu        -5.41500        5.41500       -7.22000
Cu        -7.22000        3.61000       -3.61000
Cu        -7.22000        5.41500       -1.80500
Cu        -5.41500        3.61000       -1.80500
Cu        -5.41500        5.41500       -3.61000
Cu        -7.22000        3.61000        0.00000
Cu        -7.22000        5.41500        1.80500
Cu        -5.41500        3.61000        1.80500
Cu        -5.41500        5.41500        0.00000
Cu        -7.22000        3.61000        3.61000
Cu        -7.22000        5.41500        5.41500
Cu        -5.41500        3.61000        5.41500
Cu        -5.41500        5.41500        3.61000
Cu        -7.22000        3.61000        7.22000
Cu        -7.22000        5.41500        9.02500
Cu        -5.41500        3.61000        9.02500
Cu        -5.41500        5.41500        7.22000
Cu        -7.22000        3.61000       10.83000
Cu        -7.22000        5.41500       12.63500
Cu        -5.41500        3.61000       12.63500
Cu        -5.41500        5.41500       10.83000
Cu        -7.22000        3.61000       14.44000
Cu        -7.22000        5.41500       16.24500
Cu        -5.41500        3.61000       16.24500
Cu        -5.41500        5.41500       14.44000
Cu        -7.22000        3.61000       18.05000
Cu        -7.22000        5.41500       19.85500
Cu        -5.41500        3.61000       19.85500
Cu        -5.41500        5.41500       18.05000
Cu        -7.22000        7.22000      -18.05000
Cu        -7.22000        9.02500      -16.24500
Cu        -5.41500        7.22000      -16.24500
Cu        -5.41500        9.02500      -18.05000
Cu        -7.22000        7.22000      -14.44000
Cu        -7.22000        9.02500      -12.63500
Cu        -5.41500        7.22000      -12.63500
Cu        -5.41500        9.02500      -14.44000
Cu        -7.22000        7.22000      -10.83000
Cu        -7.22000        9.02500       -9.02500
Cu        -5.41500        7.22000       -9.02500
Cu        -5.41500        9.02500      -10.83000
Cu        -7.22000        7.22000       -7.22000
Cu        -7.22000        9.02500       -5.41500
Cu        -5.41500        7.22000       -5.41500
Cu        -5.41500        9.02500       -7.22000
Cu        -7.22000        7.22000       -3.61000
Cu        -7.22000        9.02500       -1.80500
Cu        -5.41500        7.22000       -1.80500
Cu        -5.41500        9.02500       -3.61000
Cu        -7.22000        7.22000        0.00000
Cu        -7.22000        9.02500        1.80500
Cu        -5.41500        7.22000        1.80500
Cu        -5.41500        9.02500        0.00000
Cu        -7.22000        7.22000        3.61000
Cu        -7.22000        9.02500        5.41500
Cu        -5.41500        7.22000        5.41500
Cu        -5.41500        9.02500        3.61000
Cu        -7.22000        7.22000        7.22000
Cu        -7.22000        9.02500        9.02500
Cu        -5.41500        7.22000        9.02500
Cu        -5.41500        9.02500        7.22000
Cu        -7.22000        7.22000       10.83000
Cu        -7.22000        9.02500       12.63500
Cu        -5.41500        7.22000       12.63500
Cu        -5.41500        9.02500       10.83000
Cu        -7.22000        7.22000       14.44000
Cu        -7.22000        9.02500       16.24500
Cu        -5.41500        7.22000       16.24500
Cu        -5.41500        9.02500       14.44000
Cu        -7.22000        7.22000       18.05000
Cu        -5.41500        7.22000       19.85500
Cu        -5.41500        9.02500       18.05000
Cu        -5.41500       10.83000      -16.24500
Cu        -7.22000       10.83000      -14.44000
Cu        -7.22000       12.63500      -12.63500
Cu        -5.41500       10.83000      -12.63500
Cu        -5.41500       12.63500      -14.44000
Cu        -7.22000       10.83000      -10.83000
Cu        -7.22000       12.63500       -9.02500
Cu        -5.41500       10.83000       -9.02500
Cu        -5.41500       12.63500      -10.83000
Cu        -7.22000       10.83000       -7.22000
Cu        -7.22000       12.63500       -5.41500
Cu        -5.41500       10.83000       -5.41500
Cu        -5.41500       12.63500       -7.22000
Cu        -7.22000       10.83000       -3.61000
Cu        -7.22000       12.63500       -1.80500
Cu        -5.41500       10.83000       -1.80500
Cu        -5.41500       12.63500       -3.61000
Cu        -7.22000       10.83000        0.00000
Cu        -7.22000       12.63500        1.80500
Cu        -5.41500       10.83000        1.80500
Cu        -5.41500       12.63500        0.00000
Cu        -7.22000       10.83000        3.61000
Cu        -7.22000       12.63500        5.41500
Cu        -5.41500       10.83000        5.41500
Cu        -5.41500       12.63500        3.61000
Cu        -7.22000       10.83000        7.22000
Cu        -7.22000       12.63500        9.02500
Cu        -5.41500       10.83000        9.02500
Cu        -5.41500       12.63500        7.22000
Cu        -7.22000       10.83000       10.83000
Cu        -7.22000       12.63500       12.63500
Cu        -5.41500       10.83000       12.63500
Cu        -5.41500       12.63500       10.83000
Cu        -7.22000       10.83000       14.44000
Cu        -5.41500       10.83000       16.24500
Cu        -5.41500       12.63500       14.44000
Cu        -5.41500       14.44000      -12.63500
Cu        -7.22000       14.44000      -10.83000
Cu        -7.22000       16.24500       -9.02500
Cu        -5.41500       14.44000       -9.02500
Cu        -5.41500       16.24500      -10.83000
Cu        -7.22000       14.44000       -7.22000
Cu        -7.22000       16.24500       -5.41500
Cu        -5.41500       14.44000       -5.41500
Cu        -5.41500       16.24500       -7.22000
Cu        -7.22000       14.44000       -3.61000
Cu        -7.22000       16.24500       -1.80500
Cu        -5.41500       14.44000       -1.80500
Cu        -5.41500       16.24500       -3.61000
Cu        -7.22000       14.44000        0.00000
Cu        -7.22000       16.24500        1.80500
Cu        -5.41500       14.44000        1.80500
Cu        -5.41500       16.24500        0.00000
Cu        -7.22000       14.44000        3.61000
Cu        -7.22000       16.24500        5.41500
Cu        -5.41500       14.44000        5.41500
Cu        -5.41500       16.24500        3.61000
Cu        -7.22000       14.44000        7.22000
Cu        -7.22000       16.24500        9.02500
Cu        -5.41500       14.44000        9.02500
Cu        -5.41500       16.24500        7.22000
Cu        -7.22000       14.44000       10.83000
Cu        -5.41500       14.44000       12.63500
Cu        -5.41500       16.24500       10.83000
Cu        -5.41500       18.05000       -9.02500
Cu        -7.22000       18.05000       -7.22000
Cu        -7.22000       19.85500       -5.41500
Cu        -5.41500       18.05000       -5.41500
Cu        -5.41500       19.85500       -7.22000
Cu        -7.22000       18.05000       -3.61000
Cu        -7.22000       19.85500       -1.80500
Cu        -5.41500       18.05000       -1.80500
Cu        -5.41500       19.85500       -3.61000
Cu        -7.22000       18.05000        0.00000
Cu        -7.22000       19.85500        1.80500
Cu        -5.41500       18.05000        1.80500
Cu        -5.41500       19.85500        0.00000
Cu        -7.22000       18.05000        3.61000
Cu        -7.22000       19.85500        5.41500
Cu        -5.41500       18.05000        5.41500
Cu        -5.41500       19.85500        3.61000
Cu        -7.22000       18.05000        7.22000
Cu        -5.41500       18.05000        9.02500
Cu        -5.41500       19.85500        7.22000
Cu        -3.61000      -16.24500       -9.02500
Cu        -1.80500      -18.05000       -9.02500
Cu        -1.80500      -16.24500      -10.83000
Cu        -3.61000      -18.05000       -7.22000
Cu        -3.61000      -16.24500       -5.41500
Cu        -1.80500      -18.05000       -5.41500
Cu        -1.80500      -16.24500       -7.22000
Cu        -3.61000      -18.05000       -3.61000
Cu        -3.61000      -16.24500       -1.80500
Cu        -1.80500      -18.05000       -1.80500
Cu        -1.80500      -16.24500       -3.61000
Cu        -3.61000      -18.05000        0.00000
Cu        -3.61000      -16.24500        1.80500
Cu        -1.80500      -18.05000        1.80500
Cu        -1.80500      -16.24500        0.00000
Cu        -3.61000      -18.05000        3.61000
Cu        -3.61000      -16.24500        5.41500
Cu        -1.80500      -18.05000        5.41500
Cu        -1.80500      -16.24500        3.61000
Cu        -3.61000      -18.05000        7.22000
Cu        -3.61000      -16.24500        9.02500
Cu        -1.80500      -18.05000        9.02500
Cu        -1.80500      -16.24500        7.22000
Cu        -3.61000      -18.05000       10.83000
Cu        -3.61000      -16.24500       12.63500
Cu        -1.80500      -18.05000       12.63500
Cu        -1.80500      -16.24500       10.83000
Cu        -1.80500      -16.24500       14.44000
Cu        -3.61000      -12.63500      -12.63500
Cu        -1.80500      -14.44000      -12.63500
Cu        -1.80500      -12.63500      -14.44000
Cu        -3.61000      -14.44000      -10.83000
Cu        -3.61000      -12.63500       -9.02500
Cu        -1.80500      -14.44000       -9.02500
Cu        -1.80500      -12.63500      -10.83000
Cu        -3.61000      -14.44000       -7.22000
Cu        -3.61000      -12.63500       -5.41500
Cu        -1.80500      -14.44000       -5.41500
Cu        -1.80500      -12.63500       -7.22000
Cu        -3.61000      -14.44000       -3.61000
Cu        -3.61000      -12.63500       -1.80500
Cu        -1.80500      -14.44000       -1.80500
Cu        -1.80500      -12.63500       -3.61000
Cu        -3.61000      -14.44000        0.00000
Cu        -3.61000      -12.63500        1.80500
Cu        -1.80500      -14.44000        1.80500
Cu        -1.80500      -12.63500        0.00000
Cu        -3.61000      -14.44000        3.61000
Cu        -3.61000      -12.63500        5.41500
Cu        -1.80500      -14.44000        5.41500
Cu        -1.80500      -12.63500        3.61000
Cu        -3.61000      -14.44000        7.22000
Cu        -3.61000      -12.63500        9.02500
Cu        -1.80500      -14.44000        9.02500
Cu        -1.80500      -12.63500        7.22000
Cu        -3.61000      -14.44000       10.83000
Cu        -3.61000      -12.63500       12.63500
Cu        -1.80500      -14.44000       12.63500
Cu        -1.80500      -12.63500       10.83000
Cu        -3.61000      -14.44000       14.44000
Cu        -3.61000      -12.63500       16.24500
Cu        -1.80500      -14.44000       16.24500
Cu        -1.80500      -12.63500       14.44000
Cu        -1.80500      -12.63500       18.05000
Cu        -3.61000       -9.02500      -16.24500
Cu        -1.80500      -10.83000      -16.24500
Cu        -1.80500       -9.02500      -18.05000
Cu        -3.61000      -10.83000      -14.44000
Cu        -3.61000       -9.02500      -12.63500
Cu        -1.80500      -10.83000      -12.63500
Cu        -1.80500       -9.02500      -14.44000
Cu        -3.61000      -10.83000      -10.83000
Cu        -3.61000       -9.02500       -9.02500
Cu        -1.80500      -10.83000       -9.02500
Cu        -1.80500       -9.02500      -10.83000
Cu        -3.61000      -10.83000       -7.22000
Cu        -3.61000       -9.02500       -5.41500
Cu        -1.80500      -10.83000       -5.41500
Cu        -1.80500       -9.02500       -7.22000
Cu        -3.61000      -10.83000       -3.61000
Cu        -3.61000       -9.02500       -1.80500
Cu        -1.80500      -10.83000       -1.80500
Cu        -1.80500       -9.02500       -3.61000
Cu        -3.61000      -10.83000        0.00000
Cu        -3.61000       -9.02500        1.80500
Cu        -1.80500      -10.83000        1.80500
Cu        -1.80500       -9.02500        0.00000
Cu        -3.61000      -10.83000        3.61000
Cu        -3.61000       -9.02500        5.41500
Cu        -1.80500      -10.83000        5.41500
Cu        -1.80500       -9.02500        3.61000
Cu        -3.61000      -10.83000        7.22000
Cu        -3.61000       -9.02500        9.02500
Cu        -1.80500      -10.83000        9.02500
Cu        -1.80500       -9.02500        7.22000
Cu        -3.61000      -10.83000       10.83000
Cu        -3.61000       -9.02500       12.63500
Cu        -1.80500      -10.83000       12.63500
Cu        -1.80500       -9.02500       10.83000
Cu        -3.61000      -10.83000       14.44000
Cu        -3.61000       -9.02500       16.24500
Cu        -1.80500      -10.83000       16.24500
Cu        -1.80500       -9.02500       14.44000
Cu        -3.61000      -10.83000       18.05000
Cu        -3.61000       -9.02500       19.85500
Cu        -1.80500      -10.83000       19.85500
Cu        -1.80500       -9.02500       18.05000
Cu        -3.61000       -7.22000      -18.05000
Cu        -3.61000       -5.41500      -16.24500
Cu        -1.80500       -7.22000      -16.24500
Cu        -1.80500       -5.41500      -18.05000
Cu        -3.61000       -7.22000      -14.44000
Cu        -3.61000       -5.41500      -12.63500
Cu        -1.80500       -7.22000      -12.63500
Cu        -1.80500       -5.41500      -14.44000
Cu        -3.61000       -7.22000      -10.83000
Cu        -3.61000       -5.41500       -9.02500
Cu        -1.80500       -7.22000       -9.02500
Cu        -1.80500       -5.41500      -10.83000
Cu        -3.61000       -7.22000       -7.22000
Cu        -3.61000       -5.41500       -5.41500
Cu        -1.80500       -7.22000       -5.41500
Cu        -1.80500       -5.41500       -7.22000
Cu        -3.61000       -7.22000       -3.61000
Cu        -3.61000       -5.41500       -1.80500
Cu        -1.80500       -7.22000       -1.80500
Cu        -1.80500       -5.41500       -3.61000
Cu        -3.61000       -7.22000        0.00000
Cu        -3.61000       -5.41500        1.80500
Cu        -1.80500       -7.22000        1.80500
Cu        -1.80500       -5.41500        0.00000
Cu        -3.61000       -7.22000        3.61000
Cu        -3.61000       -5.41500        5.41500
Cu        -1.80500       -7.22000        5.41500
Cu        -1.80500       -5.41500        3.61000
Cu        -3.61000       -7.22000        7.22000
Cu        -3.61000       -5.41500        9.02500
Cu        -1.80500       -7.22000        9.02500
Cu        -1.80500       -5.41500        7.22000
Cu        -3.61000       -7.22000       10.83000
Cu        -3.61000       -5.41500       12.63500
Cu        -1.80500       -7.22000       12.63500
Cu        -1.80500       -5.41500       10.83000
Cu        -3.61000       -7.22000       14.44000
Cu        -3.61000       -5.41500       16.24500
Cu        -1.80500       -7.22000       16.24500
Cu        -1.80500       -5.41500       14.44000
Cu        -3.61000       -7.22000       18.05000
Cu        -3.61000       -5.41500       19.85500
Cu        -1.80500       -7.22000       19.85500
Cu        -1.80500       -5.41500       18.05000
Cu        -3.61000       -3.61000      -18.05000
Cu        -3.61000       -1.80500      -16.24500
Cu        -1.80500       -3.61000      -16.24500
Cu        -1.80500       -1.80500      -18.05000
Cu        -3.61000       -3.61000      -14.44000
Cu        -3.61000       -1.80500      -12.63500
Cu        -1.80500       -3.61000      -12.63500
Cu        -1.80500       -1.80500      -14.44000
Cu        -3.61000       -3.61000      -10.83000
Cu        -3.61000       -1.80500       -9.02500
Cu        -1.80500       -3.61000       -9.02500
Cu        -1.80500       -1.80500      -10.83000
Cu        -3.61000       -3.61000       -7.22000
Cu        -3.61000       -1.80500       -5.41500
Cu        -1.80500       -3.61000       -5.41500
Cu        -1.80500       -1.80500       -7.22000
Cu        -3.61000       -3.61000       -3.61000
Cu        -3.61000       -1.80500       -1.80500
Cu        -1.80500       -3.61000       -1.80500
Cu        -1.80500       -1.80500       -3.61000
Cu        -3.61000       -3.61000        0.00000
Cu        -3.61000       -1.80500        1.80500
Cu        -1.80500       -3.61000        1.80500
Cu        -1.80500       -1.80500        0.00000
Cu        -3.61000       -3.61000        3.61000
Cu        -3.61000       -1.80500        5.41500
Cu        -1.80500       -3.61000        5.41500
Cu        -1.80500       -1.80500        3.61000
Cu        -3.61000       -3.61000        7.22000
Cu        -3.61000       -1.80500        9.02500
Cu        -1.80500       -3.61000        9.02500
Cu        -1.80500       -1.80500        7.22000
Cu        -3.61000       -3.61000       10.83000
Cu        -3.61000       -1.80500       12.63500
Cu        -1.80500       -3.61000       12.63500
Cu        -1.80500       -1.80500       10.83000
Cu        -3.61000       -3.61000       14.44000
Cu        -3.61000       -1.80500       16.24500
Cu        -1.80500       -3.61000       16.24500
Cu        -1.80500       -1.80500       14.44000
Cu        -3.61000       -3.61000       18.05000
Cu        -3.61000       -1.80500       19.85500
Cu        -1.80500       -3.61000       19.85500
Cu        -1.80500       -1.80500       18.05000
Cu        -3.61000       -0.00000      -18.05000
Cu        -3.61000        1.80500      -16.24500
Cu        -1.80500       -0.00000      -16.24500
Cu        -1.80500        1.80500      -18.05000
Cu        -3.61000       -0.00000      -14.44000
Cu        -3.61000        1.80500      -12.63500
Cu        -1.80500       -0.00000      -12.63500
Cu        -1.80500        1.80500      -14.44000
Cu        -3.61000       -0.00000      -10.83000
Cu        -3.61000        1.80500       -9.02500
Cu        -1.80500       -0.00000       -9.02500
Cu        -1.80500        1.80500      -10.83000
Cu        -3.61000       -0.00000       -7.22000
Cu        -3.61000        1.80500       -5.41500
Cu        -1.80500       -0.00000       -5.41500
Cu        -1.80500        1.80500       -7.22000
Cu        -3.61000       -0.00000       -3.61000
Cu        -3.61000        1.80500       -1.80500
Cu        -1.80500       -0.00000       -1.80500
Cu        -1.80500        1.80500       -3.61000
Cu        -3.61000        0.00000        0.00000
Cu        -3.61000        1.80500        1.80500
Cu        -1.80500        0.00000        1.80500
Cu        -1.80500        1.80500        0.00000
Cu        -3.61000        0.00000        3.61000
Cu        -3.61000        1.80500        5.41500
Cu        -1.80500        0.00000        5.41500
Cu        -1.80500        1.80500        3.61000
Cu        -3.61000        0.00000        7.22000
Cu        -3.61000        1.80500        9.02500
Cu        -1.80500        0.00000        9.02500
Cu        -1.80500        1.80500        7.22000
Cu        -3.61000        0.00000       10.83000
Cu        -3.61000        1.80500       12.63500
Cu        -1.80500        0.00000       12.63500
Cu        -1.80500        1.80500       10.83000
Cu        -3.61000        0.00000       14.44000
Cu        -3.61000        1.80500       16.24500
Cu        -1.80500        0.00000       16.24500
Cu        -1.80500        1.80500       14.44000
Cu        -3.61000        0.00000       18.05000
Cu        -3.61000        1.80500       19.85500
Cu        -1.80500        0.00000       19.85500
Cu        -1.80500        1.80500       18.05000
Cu        -3.61000        3.61000      -18.05000
Cu        -3.61000        5.41500      -16.24500
Cu        -1.80500        3.61000      -16.24500
Cu        -1.80500        5.41500      -18.05000
Cu        -3.61000        3.61000      -14.44000
Cu        -3.61000        5.41500      -12.63500
Cu        -1.80500        3.61000      -12.63500
Cu        -1.80500        5.41500      -14.44000
Cu        -3.61000        3.61000      -10.83000
Cu        -3.61000        5.41500       -9.02500
Cu        -1.80500        3.61000       -9.02500
Cu        -1.80500        5.41500      -10.83000
Cu        -3.61000        3.61000       -7.22000
Cu        -3.61000        5.41500       -5.41500
Cu        -1.80500        3.61000       -5.41500
Cu        -1.80500        5.41500       -7.22000
Cu        -3.61000        3.61000       -3.61000
Cu        -3.61000        5.41500       -1.80500
Cu        -1.80500        3.61000       -1.80500
Cu        -1.80500        5.41500       -3.61000
Cu        -3.61000        3.61000        0.00000
Cu        -3.61000        5.41500        1.80500
Cu        -1.80500        3.61000        1.80500
Cu        -1.80500        5.41500        0.00000
Cu        -3.61000        3.61000        3.61000
Cu        -3.61000        5.41500        5.41500
Cu        -1.80500        3.61000        5.41500
Cu        -1.80500        5.41500        3.61000
Cu        -3.61000        3.61000        7.22000
Cu        -3.61000        5.41500        9.02500
Cu        -1.80500        3.61000        9.02500
Cu        -1.80500        5.41500        7.22000
Cu        -3.61000        3.61000       10.83000
Cu        -3.61000        5.41500       12.63500
Cu        -1.80500        3.61000       12.63500
Cu        -1.80500        5.41500       10.83000
Cu        -3.61000        3.61000       14.44000
Cu        -3.61000        5.41500       16.24500
Cu        -1.80500        3.61000       16.24500
Cu        -1.80500        5.41500       14.44000
Cu        -3.61000        3.61000       18.05000
Cu        -3.61000        5.41500       19.85500
Cu        -1.80500        3.61000       19.85500
Cu        -1.80500        5.41500       18.05000
Cu        -3.61000        7.22000      -18.05000
Cu        -3.61000        9.02500      -16.24500
Cu        -1.80500        7.22000      -16.24500
Cu        -1.80500        9.02500      -18.05000
Cu        -3.61000        7.22000      -14.44000
Cu        -3.61000        9.02500      -12.63500
Cu        -1.80500        7.22000      -12.63500
Cu        -1.80500        9.02500      -14.44000
Cu        -3.61000        7.22000      -10.83000
Cu        -3.61000        9.02500       -9.02500
Cu        -1.80500        7.22000       -9.02500
Cu        -1.80500        9.02500      -10.83000
Cu        -3.61000        7.22000       -7.22000
Cu        -3.61000        9.02500       -5.41500
Cu        -1.80500        7.22000       -5.41500
Cu        -1.80500        9.02500       -7.22000
Cu        -3.61000        7.22000       -3.61000
Cu        -3.61000        9.02500       -1.80500
Cu        -1.80500        7.22000       -1.80500
Cu        -1.80500        9.02500       -3.61000
Cu        -3.61000        7.22000        0.00000
Cu        -3.61000        9.02500        1.80500
Cu        -1.80500        7.22000        1.80500
Cu        -1.80500        9.02500        0.00000
Cu        -3.61000        7.22000        3.61000
Cu        -3.61000        9.02500        5.41500
Cu        -1.80500        7.22000        5.41500
Cu        -1.80500        9.02500        3.61000
Cu        -3.61000        7.22000        7.22000
Cu        -3.61000        9.02500        9.02500
Cu        -1.80500        7.22000        9.02500
Cu        -1.80500        9.02500        7.22000
Cu        -3.61000        7.22000       10.83000
Cu        -3.61000        9.02500       12.63500
Cu        -1.80500        7.22000       12.63500
Cu        -1.80500        9.02500       10.83000
Cu        -3.61000        7.22000       14.44000
Cu        -3.61000        9.02500       16.24500
Cu        -1.80500        7.22000       16.24500
Cu        -1.80500        9.02500       14.44000
Cu        -3.61000        7.22000       18.05000
Cu        -3.61000        9.02500       19.85500
Cu        -1.80500        7.22000       19.85500
Cu        -1.80500        9.02500       18.05000
Cu        -3.61000       10.83000      -18.05000
Cu        -3.61000       12.63500      -16.24500
Cu        -1.80500       10.83000      -16.24500
Cu        -1.80500       12.63500      -18.05000
Cu        -3.61000       10.83000      -14.44000
Cu        -3.61000       12.63500      -12.63500
Cu        -1.80500       10.83000      -12.63500
Cu        -1.80500       12.63500      -14.44000
Cu        -3.61000       10.83000      -10.83000
Cu        -3.61000       12.63500       -9.02500
Cu        -1.80500       10.83000       -9.02500
Cu        -1.80500       12.63500      -10.83000
Cu        -3.61000       10.83000       -7.22000
Cu        -3.61000       12.63500       -5.41500
Cu        -1.80500       10.83000       -5.41500
Cu        -1.80500       12.63500       -7.22000
Cu        -3.61000       10.83000       -3.61000
Cu        -3.61000       12.63500       -1.80500
Cu        -1.80500       10.83000       -1.80500
Cu        -1.80500       12.63500       -3.61000
Cu        -3.61000       10.83000        0.00000
Cu        -3.61000       12.63500        1.80500
Cu        -1.80500       10.83000        1.80500
Cu        -1.80500       12.63500        0.00000
Cu        -3.61000       10.83000        3.61000
Cu        -3.61000       12.63500        5.41500
Cu        -1.80500       10.83000        5.41500
Cu        -1.80500       12.63500        3.61000
Cu        -3.61000       10.83000        7.22000
Cu        -3.61000       12.63500        9.02500
Cu        -1.80500       10.83000        9.02500
Cu        -1.80500       12.63500        7.22000
Cu        -3.61000       10.83000       10.83000
Cu        -3.61000       12.63500       12.63500
Cu        -1.80500       10.83000       12.63500
Cu        -1.80500       12.63500       10.83000
Cu        -3.61000       10.83000       14.44000
Cu        -3.61000       12.63500       16.24500
Cu        -1.80500       10.83000       16.24500
Cu        -1.80500       12.63500       14.44000
Cu        -3.61000       10.83000       18.05000
Cu        -1.80500       10.83000       19.85500
Cu        -1.80500       12.63500       18.05000
Cu        -1.80500       14.44000      -16.24500
Cu        -3.61000       14.44000      -14.44000
Cu        -3.61000       16.24500      -12.63500
Cu        -1.80500       14.44000      -12.63500
Cu        -1.80500       16.24500      -14.44000
Cu        -3.61000       14.44000      -10.83000
Cu        -3.61000       16.24500       -9.02500
Cu        -1.80500       14.44000       -9.02500
Cu        -1.80500       16.24500      -10.83000
Cu        -3.61000       14.44000       -7.22000
Cu        -3.61000       16.24500       -5.41500
Cu        -1.80500       14.44000       -5.41500
Cu        -1.80500       16.24500       -7.22000
Cu        -3.61000       14.44000       -3.61000
Cu        -3.61000       16.24500       -1.80500
Cu        -1.80500       14.44000       -1.80500
Cu        -1.80500       16.24500       -3.61000
Cu        -3.61000       14.44000        0.00000
Cu        -3.61000       16.24500        1.80500
Cu        -1.80500       14.44000        1.80500
Cu        -1.80500       16.24500        0.00000
Cu        -3.61000       14.44000        3.61000
Cu        -3.61000       16.24500        5.41500
Cu        -1.80500       14.44000        5.41500
Cu        -1.80500       16.24500        3.61000
Cu        -3.61000       14.44000        7.22000
Cu        -3.61000       16.24500        9.02500
Cu        -1.80500       14.44000        9.02500
Cu        -1.80500       16.24500        7.22000
Cu        -3.61000       14.44000       10.83000
Cu        -3.61000       16.24500       12.63500
Cu        -1.80500       14.44000       12.63500
Cu        -1.80500       16.24500       10.83000
Cu        -3.61000       14.44000       14.44000
Cu        -1.80500       14.44000       16.24500
Cu        -1.80500       16.24500       14.44000
Cu        -1.80500       18.05000      -12.63500
Cu        -3.61000       18.05000      -10.83000
Cu        -3.61000       19.85500       -9.02500
Cu        -1.80500       18.05000       -9.02500
Cu        -1.80500       19.85500      -10.83000
Cu        -3.61000       18.05000       -7.22000
Cu        -3.61000       19.85500       -5.41500
Cu        -1.80500       18.05000       -5.41500
Cu        -1.80500       19.85500       -7.22000
Cu        -3.61000       18.05000       -3.61000
Cu        -3.61000       19.85500       -1.80500
Cu        -1.80500       18.05000       -1.80500
Cu        -1.80500       19.85500       -3.61000
Cu        -3.61000       18.05000        0.00000
Cu        -3.61000       19.85500        1.80500
Cu        -1.80500       18.05000        1.80500
Cu        -1.80500       19.85500        0.00000
Cu        -3.61000       18.05000        3.61000
Cu        -3.61000       19.85500        5.41500
Cu        -1.80500       18.05000        5.41500
Cu        -1.80500       19.85500        3.61000
Cu        -3.61000       18.05000        7.22000
Cu        -3.61000       19.85500        9.02500
Cu        -1.80500       18.05000        9.02500
Cu        -1.80500       19.85500        7.22000
Cu        -3.61000       18.05000       10.83000
Cu        -1.80500       18.05000       12.63500
Cu        -1.80500       19.85500       10.83000
Cu        -0.00000      -16.24500      -12.63500
Cu         1.80500      -18.05000      -12.63500
Cu         1.80500      -16.24500      -14.44000
Cu        -0.00000      -18.05000      -10.83000
Cu        -0.00000      -16.24500       -9.02500
Cu         1.80500      -18.05000       -9.02500
Cu         1.80500      -16.24500      -10.83000
Cu        -0.00000      -18.05000       -7.22000
Cu        -0.00000      -16.24500       -5.41500
Cu         1.80500      -18.05000       -5.41500
Cu         1.80500      -16.24500       -7.22000
Cu        -0.00000      -18.05000       -3.61000
Cu        -0.00000      -16.24500       -1.80500
Cu         1.80500      -18.05000       -1.80500
Cu         1.80500      -16.24500       -3.61000
Cu        -0.00000      -18.05000        0.00000
Cu        -0.00000      -16.24500        1.80500
Cu         1.80500      -18.05000        1.80500
Cu         1.80500      -16.24500        0.00000
Cu        -0.00000      -18.05000        3.61000
Cu        -0.00000      -16.24500        5.41500
Cu         1.80500      -18.05000        5.41500
Cu         1.80500      -16.24500        3.61000
Cu        -0.00000      -18.05000        7.22000
Cu        -0.00000      -16.24500        9.02500
Cu         1.80500      -18.05000        9.02500
Cu         1.80500      -16.24500        7.22000
Cu        -0.00000      -18.05000       10.83000
Cu        -0.00000      -16.24500       12.63500
Cu         1.80500      -18.05000       12.63500
Cu         1.80500      -16.24500       10.83000
Cu        -0.00000      -18.05000       14.44000
Cu        -0.00000      -16.24500       16.24500
Cu         1.80500      -16.24500       14.44000
Cu        -0.00000      -12.63500      -16.24500
Cu         1.80500      -14.44000      -16.24500
Cu         1.80500      -12.63500      -18.05000
Cu        -0.00000      -14.44000      -14.44000
Cu        -0.00000      -12.63500      -12.63500
Cu         1.80500      -14.44000      -12.63500
Cu         1.80500      -12.63500      -14.44000
Cu        -0.00000      -14.44000      -10.83000
Cu        -0.00000      -12.63500       -9.02500
Cu         1.80500      -14.44000       -9.02500
Cu         1.80500      -12.63500      -10.83000
Cu        -0.00000      -14.44000       -7.22000
Cu        -0.00000      -12.63500       -5.41500
Cu         1.80500      -14.44000       -5.41500
Cu         1.80500      -12.63500       -7.22000
Cu        -0.00000      -14.44000       -3.61000
Cu        -0.00000      -12.63500       -1.80500
Cu         1.80500      -14.44000       -1.80500
Cu         1.80500      -12.63500       -3.61000
Cu        -0.00000      -14.44000        0.00000
Cu        -0.00000      -12.63500        1.80500
Cu         1.80500      -14.44000        1.80500
Cu         1.80500      -12.63500        0.00000
Cu        -0.00000      -14.44000        3.61000
Cu        -0.00000      -12.63500        5.41500
Cu         1.80500      -14.44000        5.41500
Cu         1.80500      -12.63500        3.61000
Cu        -0.00000      -14.44000        7.22000
Cu        -0.00000      -12.63500        9.02500
Cu         1.80500      -14.44000        9.02500
Cu         1.80500      -12.63500        7.22000
Cu        -0.00000      -14.44000       10.83000
Cu        -0.00000      -12.63500       12.63500
Cu         1.80500      -14.44000       12.63500
Cu         1.80500      -12.63500       10.83000
Cu         0.00000      -14.44000       14.44000
Cu         0.00000      -12.63500       16.24500
Cu         1.80500      -14.44000       16.24500
Cu         1.80500      -12.63500       14.44000
Cu         0.00000      -14.44000       18.05000
Cu         0.00000      -12.63500       19.85500
Cu         1.80500      -12.63500       18.05000
Cu        -0.00000      -10.83000      -18.05000
Cu        -0.00000       -9.02500      -16.24500
Cu         1.80500      -10.83000      -16.24500
Cu         1.80500       -9.02500      -18.05000
Cu        -0.00000      -10.83000      -14.44000
Cu        -0.00000       -9.02500      -12.63500
Cu         1.80500      -10.83000      -12.63500
Cu         1.80500       -9.02500      -14.44000
Cu        -0.00000      -10.83000      -10.83000
Cu        -0.00000       -9.02500       -9.02500
Cu         1.80500      -10.83000       -9.02500
Cu         1.80500       -9.02500      -10.83000
Cu        -0.00000      -10.83000       -7.22000
Cu        -0.00000       -9.02500       -5.41500
Cu         1.80500      -10.83000       -5.41500
Cu         1.80500       -9.02500       -7.22000
Cu        -0.00000      -10.83000       -3.61000
Cu        -0.00000       -9.02500       -1.80500
Cu         1.80500      -10.83000       -1.80500
Cu         1.80500       -9.02500       -3.61000
Cu        -0.00000      -10.83000        0.00000
Cu        -0.00000       -9.02500        1.80500
Cu         1.80500      -10.83000        1.80500
Cu         1.80500       -9.02500        0.00000
Cu        -0.00000      -10.83000        3.61000
Cu        -0.00000       -9.02500        5.41500
Cu         1.80500      -10.83000        5.41500
Cu         1.80500       -9.02500        3.61000
Cu        -0.00000      -10.83000        7.22000
Cu        -0.00000       -9.02500        9.02500
Cu         1.80500      -10.83000        9.02500
Cu         1.80500       -9.02500        7.22000
Cu         0.00000      -10.83000       10.83000
Cu         0.00000       -9.02500       12.63500
Cu         1.80500      -10.83000       12.63500
Cu         1.80500       -9.02500       10.83000
Cu         0.00000      -10.83000       14.44000
Cu         0.00000       -9.02500       16.24500
Cu         1.80500      -10.83000       16.24500
Cu         1.80500       -9.02500       14.44000
Cu         0.00000      -10.83000       18.05000
Cu         0.00000       -9.02500       19.85500
Cu         1.80500      -10.83000       19.85500
Cu         1.80500       -9.02500       18.05000
Cu        -0.00000       -7.22000      -18.05000
Cu        -0.00000       -5.41500      -16.24500
Cu         1.80500       -7.22000      -16.24500
Cu         1.80500       -5.41500      -18.05000
Cu        -0.00000       -7.22000      -14.44000
Cu        -0.00000       -5.41500      -12.63500
Cu         1.80500       -7.22000      -12.63500
Cu         1.80500       -5.41500      -14.44000
Cu        -0.00000       -7.22000      -10.83000
Cu        -0.00000       -5.41500       -9.02500
Cu         1.80500       -7.22000       -9.02500
Cu         1.80500       -5.41500      -10.83000
Cu        -0.00000       -7.22000       -7.22000
Cu        -0.00000       -5.41500       -5.41500
Cu         1.80500       -7.22000       -5.41500
Cu         1.80500       -5.41500       -7.22000
Cu        -0.00000       -7.22000       -3.61000
Cu        -0.00000       -5.41500       -1.80500
Cu         1.80500       -7.22000       -1.80500
Cu         1.80500       -5.41500       -3.61000
Cu        -0.00000       -7.22000        0.00000
Cu        -0.00000       -5.41500        1.80500
Cu         1.80500       -7.22000        1.80500
Cu         1.80500       -5.41500        0.00000
Cu        -0.00000       -7.22000        3.61000
Cu        -0.00000       -5.41500        5.41500
Cu         1.80500       -7.22000        5.41500
Cu         1.80500       -5.41500        3.61000
Cu         0.00000       -7.22000        7.22000
Cu         0.00000       -5.41500        9.02500
Cu         1.80500       -7.22000        9.02500
Cu         1.80500       -5.41500        7.22000
Cu         0.00000       -7.22000       10.83000
Cu         0.00000       -5.41500       12.63500
Cu         1.80500       -7.22000       12.63500
Cu         1.80500       -5.41500       10.83000
Cu         0.00000       -7.22000       14.44000
Cu         0.00000       -5.41500       16.24500
Cu         1.80500       -7.22000       16.24500
Cu         1.80500       -5.41500       14.44000
Cu         0.00000       -7.22000       18.05000
Cu         0.00000       -5.41500       19.85500
Cu         1.80500       -7.22000       19.85500
Cu         1.80500       -5.41500       18.05000
Cu        -0.00000       -3.61000      -18.05000
Cu        -0.00000       -1.80500      -16.24500
Cu         1.80500       -3.61000      -16.24500
Cu         1.80500       -1.80500      -18.05000
Cu        -0.00000       -3.61000      -14.44000
Cu        -0.00000       -1.80500      -12.63500
Cu         1.80500       -3.61000      -12.63500
Cu         1.80500       -1.80500      -14.44000
Cu        -0.00000       -3.61000      -10.83000
Cu        -0.00000       -1.80500       -9.02500
Cu         1.80500       -3.61000       -9.02500
Cu         1.80500       -1.80500      -10.83000
Cu        -0.00000       -3.61000       -7.22000
Cu        -0.00000       -1.80500       -5.41500
Cu         1.80500       -3.61000       -5.41500
Cu         1.80500       -1.80500       -7.22000
Cu        -0.00000       -3.61000       -3.61000
Cu        -0.00000       -1.80500       -1.80500
Cu         1.80500       -3.61000       -1.80500
Cu         1.80500       -1.80500       -3.61000
Cu        -0.00000       -3.61000        0.00000
Cu        -0.00000       -1.80500        1.80500
Cu         1.80500       -3.61000        1.80500
Cu         1.80500       -1.80500        0.00000
Cu         0.00000       -3.61000        3.61000
Cu         0.00000       -1.80500        5.41500
Cu         1.80500       -3.61000        5.41500
Cu         1.80500       -1.80500        3.61000
Cu         0.00000       -3.61000        7.22000
Cu         0.00000       -1.80500        9.02500
Cu         1.80500       -3.61000        9.02500
Cu         1.80500       -1.80500        7.22000
Cu         0.00000       -3.61000       10.83000
Cu         0.00000       -1.80500       12.63500
Cu         1.80500       -3.61000       12.63500
Cu         1.80500       -1.80500       10.83000
Cu         0.00000       -3.61000       14.44000
Cu         0.00000       -1.80500       16.24500
Cu         1.80500       -3.61000       16.24500
Cu         1.80500       -1.80500       14.44000
Cu         0.00000       -3.61000       18.05000
Cu         0.00000       -1.80500       19.85500
Cu         1.80500       -3.61000       19.85500
Cu         1.80500       -1.80500       18.05000
Cu        -0.00000       -0.00000      -18.05000
Cu        -0.00000        1.80500      -16.24500
Cu         1.80500       -0.00000      -16.24500
Cu         1.80500        1.80500      -18.05000
Cu        -0.00000       -0.00000      -14.44000
Cu        -0.00000        1.80500      -12.63500
Cu         1.80500       -0.00000      -12.63500
Cu         1.80500        1.80500      -14.44000
Cu        -0.00000       -0.00000      -10.83000
Cu        -0.00000        1.80500       -9.02500
Cu         1.80500       -0.00000       -9.02500
Cu         1.80500        1.80500      -10.83000
Cu        -0.00000       -0.00000       -7.22000
Cu        -0.00000        1.80500       -5.41500
Cu         1.80500       -0.00000       -5.41500
Cu         1.80500        1.80500       -7.22000
Cu        -0.00000       -0.00000       -3.61000
Cu        -0.00000        1.80500       -1.80500
Cu         1.80500       -0.00000       -1.80500
Cu         1.80500        1.80500       -3.61000
Cu         0.00000        0.00000        0.00000
Cu         0.00000        1.80500        1.80500
Cu         1.80500        0.00000        1.80500
Cu         1.80500        1.80500        0.00000
Cu         0.00000        0.00000        3.61000
Cu         0.00000        1.80500        5.41500
Cu         1.80500        0.00000        5.41500
Cu         1.80500        1.80500        3.61000
Cu         0.00000        0.00000        7.22000
Cu         0.00000        1.80500        9.02500
Cu         1.80500        0.00000        9.02500
Cu         1.80500        1.80500        7.22000
Cu         0.00000        0.00000       10.83000
Cu         0.00000        1.80500       12.63500
Cu         1.80500        0.00000       12.63500
Cu         1.80500        1.80500       10.83000
Cu         0.00000        0.00000       14.44000
Cu         0.00000        1.80500       16.24500
Cu         1.80500        0.00000       16.24500
Cu         1.80500        1.80500       14.44000
Cu         0.00000        0.00000       18.05000
Cu         0.00000        1.80500       19.85500
Cu         1.80500        0.00000       19.85500
Cu         1.80500        1.80500       18.05000
Cu        -0.00000        3.61000      -18.05000
Cu        -0.00000        5.41500      -16.24500
Cu         1.80500        3.61000      -16.24500
Cu         1.80500        5.41500      -18.05000
Cu        -0.00000        3.61000      -14.44000
Cu        -0.00000        5.41500      -12.63500
Cu         1.80500        3.61000      -12.63500
Cu         1.80500        5.41500      -14.44000
Cu        -0.00000        3.61000      -10.83000
Cu        -0.00000        5.41500       -9.02500
Cu         1.80500        3.61000       -9.02500
Cu         1.80500        5.41500      -10.83000
Cu        -0.00000        3.61000       -7.22000
Cu        -0.00000        5.41500       -5.41500
Cu         1.80500        3.61000       -5.41500
Cu         1.80500        5.41500       -7.22000
Cu        -0.00000        3.61000       -3.61000
Cu        -0.00000        5.41500       -1.80500
Cu         1.80500        3.61000       -1.80500
Cu         1.80500        5.41500       -3.61000
Cu         0.00000        3.61000        0.00000
Cu         0.00000        5.41500        1.80500
Cu         1.80500        3.61000        1.80500
Cu         1.80500        5.41500        0.00000
Cu         0.00000        3.61000        3.61000
Cu         0.00000        5.41500        5.41500
Cu         1.80500        3.61000        5.41500
Cu         1.80500        5.41500        3.61000
Cu         0.00000        3.61000        7.22000
Cu         0.00000        5.41500        9.02500
Cu         1.80500        3.61000        9.02500
Cu         1.80500        5.41500        7.22000
Cu         0.00000        3.61000       10.83000
Cu         0.00000        5.41500       12.63500
Cu         1.80500        3.61000       12.63500
Cu         1.80500        5.41500       10.83000
Cu         0.00000        3.61000       14.44000
Cu         0.00000        5.41500       16.24500
Cu         1.80500        3.61000       16.24500
Cu         1.80500        5.41500       14.44000
Cu         0.00000        3.61000       18.05000
Cu         0.00000        5.41500       19.85500
Cu         1.80500        3.61000       19.85500
Cu         1.80500        5.41500       18.05000
Cu        -0.00000        7.22000      -18.05000
Cu        -0.00000        9.02500      -16.24500
Cu         1.80500        7.22000      -16.24500
Cu         1.80500        9.02500      -18.05000
Cu        -0.00000        7.22000      -14.44000
Cu        -0.00000        9.02500      -12.63500
Cu         1.80500        7.22000      -12.63500
Cu         1.80500        9.02500      -14.44000
Cu        -0.00000        7.22000      -10.83000
Cu        -0.00000        9.02500       -9.02500
Cu         1.80500        7.22000       -9.02500
Cu         1.80500        9.02500      -10.83000
Cu        -0.00000        7.22000       -7.22000
Cu        -0.00000        9.02500       -5.41500
Cu         1.80500        7.22000       -5.41500
Cu         1.80500        9.02500       -7.22000
Cu         0.00000        7.22000       -3.61000
Cu         0.00000        9.02500       -1.80500
Cu         1.80500        7.22000       -1.80500
Cu         1.80500        9.02500       -3.61000
Cu         0.00000        7.22000        0.00000
Cu         0.00000        9.02500        1.80500
Cu         1.80500        7.22000        1.80500
Cu         1.80500        9.02500        0.00000
Cu         0.00000        7.22000        3.61000
Cu         0.00000        9.02500        5.41500
Cu         1.80500        7.22000        5.41500
Cu         1.80500        9.02500        3.61000
Cu         0.00000        7.22000        7.22000
Cu         0.00000        9.02500        9.02500
Cu         1.80500        7.22000        9.02500
Cu         1.80500        9.02500        7.22000
Cu         0.00000        7.22000       10.83000
Cu         0.00000        9.02500       12.63500
Cu         1.80500        7.22000       12.63500
Cu         1.80500        9.02500       10.83000
Cu         0.00000        7.22000       14.44000
Cu         0.00000        9.02500       16.24500
Cu         1.80500        7.22000       16.24500
Cu         1.80500        9.02500       14.44000
Cu         0.00000        7.22000       18.05000
Cu         0.00000        9.02500       19.85500
Cu         1.80500        7.22000       19.85500
Cu         1.80500        9.02500       18.05000
Cu        -0.00000       10.83000      -18.05000
Cu        -0.00000       12.63500      -16.24500
Cu         1.80500       10.83000      -16.24500
Cu         1.80500       12.63500      -18.05000
Cu        -0.00000       10.83000      -14.44000
Cu        -0.00000       12.63500      -12.63500
Cu         1.80500       10.83000      -12.63500
Cu         1.80500       12.63500      -14.44000
Cu        -0.00000       10.83000      -10.83000
Cu        -0.00000       12.63500       -9.02500
Cu         1.80500       10.83000       -9.02500
Cu         1.80500       12.63500      -10.83000
Cu         0.00000       10.83000       -7.22000
Cu         0.00000       12.63500       -5.41500
Cu         1.80500       10.83000       -5.41500
Cu         1.80500       12.63500       -7.22000
Cu         0.00000       10.83000       -3.61000
Cu         0.00000       12.63500       -1.80500
Cu         1.80500       10.83000       -1.80500
Cu         1.80500       12.63500       -3.61000
Cu         0.00000       10.83000        0.00000
Cu         0.00000       12.63500        1.80500
Cu         1.80500       10.83000        1.80500
Cu         1.80500       12.63500        0.00000
Cu         0.00000       10.83000        3.61000
Cu         0.00000       12.63500        5.41500
Cu         1.80500       10.83000        5.41500
Cu         1.80500       12.63500        3.61000
Cu         0.00000       10.83000        7.22000
Cu         0.00000       12.63500        9.02500
Cu         1.80500       10.83000        9.02500
Cu         1.80500       12.63500        7.22000
Cu         0.00000       10.83000       10.83000
Cu         0.00000       12.63500       12.63500
Cu         1.80500       10.83000       12.63500
Cu         1.80500       12.63500       10.83000
Cu         0.00000       10.83000       14.44000
Cu         0.00000       12.63500       16.24500
Cu         1.80500       10.83000       16.24500
Cu         1.80500       12.63500       14.44000
Cu         0.00000       10.83000       18.05000
Cu         0.00000       12.63500       19.85500
Cu         1.80500       10.83000       19.85500
Cu         1.80500       12.63500       18.05000
Cu        -0.00000       14.44000      -18.05000
Cu        -0.00000       16.24500      -16.24500
Cu         1.80500       14.44000      -16.24500
Cu        -0.00000       14.44000      -14.44000
Cu        -0.00000       16.24500      -12.63500
Cu         1.80500       14.44000      -12.63500
Cu         1.80500       16.24500      -14.44000
Cu         0.00000       14.44000      -10.83000
Cu         0.00000       16.24500       -9.02500
Cu         1.80500       14.44000       -9.02500
Cu         1.80500       16.24500      -10.83000
Cu         0.00000       14.44000       -7.22000
Cu         0.00000       16.24500       -5.41500
Cu         1.80500       14.44000       -5.41500
Cu         1.80500       16.24500       -7.22000
Cu         0.00000       14.44000       -3.61000
Cu         0.00000       16.24500       -1.80500
Cu         1.80500       14.44000       -1.80500
Cu         1.80500       16.24500       -3.61000
Cu         0.00000       14.44000        0.00000
Cu         0.00000       16.24500        1.80500
Cu         1.80500       14.44000        1.80500
Cu         1.80500       16.24500        0.00000
Cu         0.00000       14.44000        3.61000
Cu         0.00000       16.24500        5.41500
Cu         1.80500       14.44000        5.41500
Cu         1.80500       16.24500        3.61000
Cu         0.00000       14.44000        7.22000
Cu         0.00000       16.24500        9.02500
Cu         1.80500       14.44000        9.02500
Cu         1.80500       16.24500        7.22000
Cu         0.00000       14.44000       10.83000
Cu         0.00000       16.24500       12.63500
Cu         1.80500       14.44000       12.63500
Cu         1.80500       16.24500       10.83000
Cu         0.00000       14.44000       14.44000
Cu         0.00000       16.24500       16.24500
Cu         1.80500       14.44000       16.24500
Cu         1.80500       16.24500       14.44000
Cu         0.00000       14.44000       18.05000
Cu         1.80500       14.44000       19.85500
Cu         1.80500       16.24500       18.05000
Cu         0.00000       18.05000      -14.44000
Cu         0.00000       19.85500      -12.63500
Cu         1.80500       18.05000      -12.63500
Cu         0.00000       18.05000      -10.83000
Cu         0.00000       19.85500       -9.02500
Cu         1.80500       18.05000       -9.02500
Cu         1.80500       19.85500      -10.83000
Cu         0.00000       18.05000       -7.22000
Cu         0.00000       19.85500       -5.41500
Cu         1.80500       18.05000       -5.41500
Cu         1.80500       19.85500       -7.22000
Cu         0.00000       18.05000       -3.61000
Cu         0.00000       19.85500       -1.80500
Cu         1.80500       18.05000       -1.80500
Cu         1.80500       19.85500       -3.61000
Cu         0.00000       18.05000        0.00000
Cu         0.00000       19.85500        1.80500
Cu         1.80500       18.05000        1.80500
Cu         1.80500       19.85500        0.00000
Cu         0.00000       18.05000        3.61000
Cu         0.00000       19.85500        5.41500
Cu         1.80500       18.05000        5.41500
Cu         1.80500       19.85500        3.61000
Cu         0.00000       18.05000        7.22000
Cu         0.00000       19.85500        9.02500
Cu         1.80500       18.05000        9.02500
Cu         1.80500       19.85500        7.22000
Cu         0.00000       18.05000       10.83000
Cu         0.00000       19.85500       12.63500
Cu         1.80500       18.05000       12.63500
Cu         1.80500       19.85500       10.83000
Cu         0.00000       18.05000       14.44000
Cu         1.80500       18.05000       16.24500
Cu         1.80500       19.85500       14.44000
Cu         3.61000      -16.24500      -12.63500
Cu         3.61000      -18.05000      -10.83000
Cu         3.61000      -16.24500       -9.02500
Cu         5.41500      -18.05000       -9.02500
Cu         5.41500      -16.24500      -10.83000
Cu         3.61000      -18.05000       -7.22000
Cu         3.61000      -16.24500       -5.41500
Cu         5.41500      -18.05000       -5.41500
Cu         5.41500      -16.24500       -7.22000
Cu         3.61000      -18.05000       -3.61000
Cu         3.61000      -16.24500       -1.80500
Cu         5.41500      -18.05000       -1.80500
Cu         5.41500      -16.24500       -3.61000
Cu         3.61000      -18.05000        0.00000
Cu         3.61000      -16.24500        1.80500
Cu         5.41500      -18.05000        1.80500
Cu         5.41500      -16.24500        0.00000
Cu         3.61000      -18.05000        3.61000
Cu         3.61000      -16.24500        5.41500
Cu         5.41500      -18.05000        5.41500
Cu         5.41500      -16.24500        3.61000
Cu         3.61000      -18.05000        7.22000
Cu         3.61000      -16.24500        9.02500
Cu         5.41500      -18.05000        9.02500
Cu         5.41500      -16.24500        7.22000
Cu         3.61000      -18.05000       10.83000
Cu         3.61000      -16.24500       12.63500
Cu         5.41500      -16.24500       10.83000
Cu         3.61000      -12.63500      -16.24500
Cu         3.61000      -14.44000      -14.44000
Cu         3.61000      -12.63500      -12.63500
Cu         5.41500      -14.44000      -12.63500
Cu         5.41500      -12.63500      -14.44000
Cu         3.61000      -14.44000      -10.83000
Cu         3.61000      -12.63500       -9.02500
Cu         5.41500      -14.44000       -9.02500
Cu         5.41500      -12.63500      -10.83000
Cu         3.61000      -14.44000       -7.22000
Cu         3.61000      -12.63500       -5.41500
Cu         5.41500      -14.44000       -5.41500
Cu         5.41500      -12.63500       -7.22000
Cu         3.61000      -14.44000       -3.61000
Cu         3.61000      -12.63500       -1.80500
Cu         5.41500      -14.44000       -1.80500
Cu         5.41500      -12.63500       -3.61000
Cu         3.61000      -14.44000        0.00000
Cu         3.61000      -12.63500        1.80500
Cu         5.41500      -14.44000        1.80500
Cu         5.41500      -12.63500        0.00000
Cu         3.61000      -14.44000        3.61000
Cu         3.61000      -12.63500        5.41500
Cu         5.41500      -14.44000        5.41500
Cu         5.41500      -12.63500        3.61000
Cu         3.61000      -14.44000        7.22000
Cu         3.61000      -12.63500        9.02500
Cu         5.41500      -14.44000        9.02500
Cu         5.41500      -12.63500        7.22000
Cu         3.61000      -14.44000       10.83000
Cu         3.61000      -12.63500       12.63500
Cu         5.41500      -14.44000       12.63500
Cu         5.41500      -12.63500       10.83000
Cu         3.61000      -14.44000       14.44000
Cu         3.61000      -12.63500       16.24500
Cu         5.41500      -12.63500       14.44000
Cu         3.61000      -10.83000      -18.05000
Cu         3.61000       -9.02500      -16.24500
Cu         5.41500      -10.83000      -16.24500
Cu         5.41500       -9.02500      -18.05000
Cu         3.61000      -10.83000      -14.44000
Cu         3.61000       -9.02500      -12.63500
Cu         5.41500      -10.83000      -12.63500
Cu         5.41500       -9.02500      -14.44000
Cu         3.61000      -10.83000      -10.83000
Cu         3.61000       -9.02500       -9.02500
Cu         5.41500      -10.83000       -9.02500
Cu         5.41500       -9.02500      -10.83000
Cu         3.61000      -10.83000       -7.22000
Cu         3.61000       -9.02500       -5.41500
Cu         5.41500      -10.83000       -5.41500
Cu         5.41500       -9.02500       -7.22000
Cu         3.61000      -10.83000       -3.61000
Cu         3.61000       -9.02500       -1.80500
Cu         5.41500      -10.83000       -1.80500
Cu         5.41500       -9.02500       -3.61000
Cu         3.61000      -10.83000        0.00000
Cu         3.61000       -9.02500        1.80500
Cu         5.41500      -10.83000        1.80500
Cu         5.41500       -9.02500        0.00000
Cu         3.61000      -10.83000        3.61000
Cu         3.61000       -9.02500        5.41500
Cu         5.41500      -10.83000        5.41500
Cu         5.41500       -9.02500        3.61000
Cu         3.61000      -10.83000        7.22000
Cu         3.61000       -9.02500        9.02500
Cu         5.41500      -10.83000        9.02500
Cu         5.41500       -9.02500        7.22000
Cu         3.61000      -10.83000       10.83000
Cu         3.61000       -9.02500       12.63500
Cu         5.41500      -10.83000       12.63500
Cu         5.41500       -9.02500       10.83000
Cu         3.61000      -10.83000       14.44000
Cu         3.61000       -9.02500       16.24500
Cu         5.41500      -10.83000       16.24500
Cu         5.41500       -9.02500       14.44000
Cu         3.61000      -10.83000       18.05000
Cu         3.61000       -9.02500       19.85500
Cu         5.41500       -9.02500       18.05000
Cu         3.61000       -7.22000      -18.05000
Cu         3.61000       -5.41500      -16.24500
Cu         5.41500       -7.22000      -16.24500
Cu         5.41500       -5.41500      -18.05000
Cu         3.61000       -7.22000      -14.44000
Cu         3.61000       -5.41500      -12.63500
Cu         5.41500       -7.22000      -12.63500
Cu         5.41500       -5.41500      -14.44000
Cu         3.61000       -7.22000      -10.83000
Cu         3.61000       -5.41500       -9.02500
Cu         5.41500       -7.22000       -9.02500
Cu         5.41500       -5.41500      -10.83000
Cu         3.61000       -7.22000       -7.22000
Cu         3.61000       -5.41500       -5.41500
Cu         5.41500       -7.22000       -5.41500
Cu         5.41500       -5.41500       -7.22000
Cu         3.61000       -7.22000       -3.61000
Cu         3.61000       -5.41500       -1.80500
Cu         5.41500       -7.22000       -1.80500
Cu         5.41500       -5.41500       -3.61000
Cu         3.61000       -7.22000        0.00000
Cu         3.61000       -5.41500        1.80500
Cu         5.41500       -7.22000        1.80500
Cu         5.41500       -5.41500        0.00000
Cu         3.61000       -7.22000        3.61000
Cu         3.61000       -5.41500        5.41500
Cu         5.41500       -7.22000        5.41500
Cu         5.41500       -5.41500        3.61000
Cu         3.61000       -7.22000        7.22000
Cu         3.61000       -5.41500        9.02500
Cu         5.41500       -7.22000        9.02500
Cu         5.41500       -5.41500        7.22000
Cu         3.61000       -7.22000       10.83000
Cu         3.61000       -5.41500       12.63500
Cu         5.41500       -7.22000       12.63500
Cu         5.41500       -5.41500       10.83000
Cu         3.61000       -7.22000       14.44000
Cu         3.61000       -5.41500       16.24500
Cu         5.41500       -7.22000       16.24500
Cu         5.41500       -5.41500       14.44000
Cu         3.61000       -7.22000       18.05000
Cu         3.61000       -5.41500       19.85500
Cu         5.41500       -7.22000       19.85500
Cu         5.41500       -5.41500       18.05000
Cu         3.61000       -3.61000      -18.05000
Cu         3.61000       -1.80500      -16.24500
Cu         5.41500       -3.61000      -16.24500
Cu         5.41500       -1.80500      -18.05000
Cu         3.61000       -3.61000      -14.44000
Cu         3.61000       -1.80500      -12.63500
Cu         5.41500       -3.61000      -12.63500
Cu         5.41500       -1.80500      -14.44000
Cu         3.61000       -3.61000      -10.83000
Cu         3.61000       -1.80500       -9.02500
Cu         5.41500       -3.61000       -9.02500
Cu         5.41500       -1.80500      -10.83000
Cu         3.61000       -3.61000       -7.22000
Cu         3.61000       -1.80500       -5.41500
Cu         5.41500       -3.61000       -5.41500
Cu         5.41500       -1.80500       -7.22000
Cu         3.61000       -3.61000       -3.61000
Cu         3.61000       -1.80500       -1.80500
Cu         5.41500       -3.61000       -1.80500
Cu         5.41500       -1.80500       -3.61000
Cu         3.61000       -3.61000        0.00000
Cu         3.61000       -1.80500        1.80500
Cu         5.41500       -3.61000        1.80500
Cu         5.41500       -1.80500        0.00000
Cu         3.61000       -3.61000        3.61000
Cu         3.61000       -1.80500        5.41500
Cu         5.41500       -3.61000        5.41500
Cu         5.41500       -1.80500        3.61000
Cu         3.61000       -3.61000        7.22000
Cu         3.61000       -1.80500        9.02500
Cu         5.41500       -3.61000        9.02500
Cu         5.41500       -1.80500        7.22000
Cu         3.61000       -3.61000       10.83000
Cu         3.61000       -1.80500       12.63500
Cu         5.41500       -3.61000       12.63500
Cu         5.41500       -1.80500       10.83000
Cu         3.61000       -3.61000       14.44000
Cu         3.61000       -1.80500       16.24500
Cu         5.41500       -3.61000       16.24500
Cu         5.41500       -1.80500       14.44000
Cu         3.61000       -3.61000       18.05000
Cu         3.61000       -1.80500       19.85500
Cu         5.41500       -3.61000       19.85500
Cu         5.41500       -1.80500       18.05000
Cu         3.61000       -0.00000      -18.05000
Cu         3.61000        1.80500      -16.24500
Cu         5.41500       -0.00000      -16.24500
Cu         5.41500        1.80500      -18.05000
Cu         3.61000       -0.00000      -14.44000
Cu         3.61000        1.80500      -12.63500
Cu         5.41500       -0.00000      -12.63500
Cu         5.41500        1.80500      -14.44000
Cu         3.61000       -0.00000      -10.83000
Cu         3.61000        1.80500       -9.02500
Cu         5.41500       -0.00000       -9.02500
Cu         5.41500        1.80500      -10.83000
Cu         3.61000       -0.00000       -7.22000
Cu         3.61000        1.80500       -5.41500
Cu         5.41500       -0.00000       -5.41500
Cu         5.41500        1.80500       -7.22000
Cu         3.61000       -0.00000       -3.61000
Cu         3.61000        1.80500       -1.80500
Cu         5.41500       -0.00000       -1.80500
Cu         5.41500        1.80500       -3.61000
Cu         3.61000        0.00000        0.00000
Cu         3.61000        1.80500        1.80500
Cu         5.41500        0.00000        1.80500
Cu         5.41500        1.80500        0.00000
Cu         3.61000        0.00000        3.61000
Cu         3.61000        1.80500        5.41500
Cu         5.41500        0.00000        5.41500
Cu         5.41500        1.80500        3.61000
Cu         3.61000        0.00000        7.22000
Cu         3.61000        1.80500        9.02500
Cu         5.41500        0.00000        9.02500
Cu         5.41500        1.80500        7.22000
Cu         3.61000        0.00000       10.83000
Cu         3.61000        1.80500       12.63500
Cu         5.41500        0.00000       12.63500
Cu         5.41500        1.80500       10.83000
Cu         3.61000        0.00000       14.44000
Cu         3.61000        1.80500       16.24500
Cu         5.41500        0.00000       16.24500
Cu         5.41500        1.80500       14.44000
Cu         3.61000        0.00000       18.05000
Cu         3.61000        1.80500       19.85500
Cu         5.41500        0.00000       19.85500
Cu         5.41500        1.80500       18.05000
Cu         3.61000        3.61000      -18.05000
Cu         3.61000        5.41500      -16.24500
Cu         5.41500        3.61000      -16.24500
Cu         5.41500        5.41500      -18.05000
Cu         3.61000        3.61000      -14.44000
Cu         3.61000        5.41500      -12.63500
Cu         5.41500        3.61000      -12.63500
Cu         5.41500        5.41500      -14.44000
Cu         3.61000        3.61000      -10.83000
Cu         3.61000        5.41500       -9.02500
Cu         5.41500        3.61000       -9.02500
Cu         5.41500        5.41500      -10.83000
Cu         3.61000        3.61000       -7.22000
Cu         3.61000        5.41500       -5.41500
Cu         5.41500        3.61000       -5.41500
Cu         5.41500        5.41500       -7.22000
Cu         3.61000        3.61000       -3.61000
Cu         3.61000        5.41500       -1.80500
Cu         5.41500        3.61000       -1.80500
Cu         5.41500        5.41500       -3.61000
Cu         3.61000        3.61000        0.00000
Cu         3.61000        5.41500        1.80500
Cu         5.41500        3.61000        1.80500
Cu         5.41500        5.41500        0.00000
Cu         3.61000        3.61000        3.61000
Cu         3.61000        5.41500        5.41500
Cu         5.41500        3.61000        5.41500
Cu         5.41500        5.41500        3.61000
Cu         3.61000        3.61000        7.22000
Cu         3.61000        5.41500        9.02500
Cu         5.41500        3.61000        9.02500
Cu         5.41500        5.41500        7.22000
Cu         3.61000        3.61000       10.83000
Cu         3.61000        5.41500       12.63500
Cu         5.41500        3.61000       12.63500
Cu         5.41500        5.41500       10.83000
Cu         3.61000        3.61000       14.44000
Cu         3.61000        5.41500       16.24500
Cu         5.41500        3.61000       16.24500
Cu         5.41500        5.41500       14.44000
Cu         3.61000        3.61000       18.05000
Cu         3.61000        5.41500       19.85500
Cu         5.41500        3.61000       19.85500
Cu         5.41500        5.41500       18.05000
Cu         3.61000        7.22000      -18.05000
Cu         3.61000        9.02500      -16.24500
Cu         5.41500        7.22000      -16.24500
Cu         5.41500        9.02500      -18.05000
Cu         3.61000        7.22000      -14.44000
Cu         3.61000        9.02500      -12.63500
Cu         5.41500        7.22000      -12.63500
Cu         5.41500        9.02500      -14.44000
Cu         3.61000        7.22000      -10.83000
Cu         3.61000        9.02500       -9.02500
Cu         5.41500        7.22000       -9.02500
Cu         5.41500        9.02500      -10.83000
Cu         3.61000        7.22000       -7.22000
Cu         3.61000        9.02500       -5.41500
Cu         5.41500        7.22000       -5.41500
Cu         5.41500        9.02500       -7.22000
Cu         3.61000        7.22000       -3.61000
Cu         3.61000        9.02500       -1.80500
Cu         5.41500        7.22000       -1.80500
Cu         5.41500        9.02500       -3.61000
Cu         3.61000        7.22000        0.00000
Cu         3.61000        9.02500        1.80500
Cu         5.41500        7.22000        1.80500
Cu         5.41500        9.02500        0.00000
Cu         3.61000        7.22000        3.61000
Cu         3.61000        9.02500        5.41500
Cu         5.41500        7.22000        5.41500
Cu         5.41500        9.02500        3.61000
Cu         3.61000        7.22000        7.22000
Cu         3.61000        9.02500        9.02500
Cu         5.41500        7.22000        9.02500
Cu         5.41500        9.02500        7.22000
Cu         3.61000        7.22000       10.83000
Cu         3.61000        9.02500       12.63500
Cu         5.41500        7.22000       12.63500
Cu         5.41500        9.02500       10.83000
Cu         3.61000        7.22000       14.44000
Cu         3.61000        9.02500       16.24500
Cu         5.41500        7.22000       16.24500
Cu         5.41500        9.02500       14.44000
Cu         3.61000        7.22000       18.05000
Cu         3.61000        9.02500       19.85500
Cu         5.41500        7.22000       19.85500
Cu         5.41500        9.02500       18.05000
Cu         3.61000       10.83000      -18.05000
Cu         3.61000       12.63500      -16.24500
Cu         5.41500       10.83000      -16.24500
Cu         3.61000       10.83000      -14.44000
Cu         3.61000       12.63500      -12.63500
Cu         5.41500       10.83000      -12.63500
Cu         5.41500       12.63500      -14.44000
Cu         3.61000       10.83000      -10.83000
Cu         3.61000       12.63500       -9.02500
Cu         5.41500       10.83000       -9.02500
Cu         5.41500       12.63500      -10.83000
Cu         3.61000       10.83000       -7.22000
Cu         3.61000       12.63500       -5.41500
Cu         5.41500       10.83000       -5.41500
Cu         5.41500       12.63500       -7.22000
Cu         3.61000       10.83000       -3.61000
Cu         3.61000       12.63500       -1.80500
Cu         5.41500       10.83000       -1.80500
Cu         5.41500       12.63500       -3.61000
Cu         3.61000       10.83000        0.00000
Cu         3.61000       12.63500        1.80500
Cu         5.41500       10.83000        1.80500
Cu         5.41500       12.63500        0.00000
Cu         3.61000       10.83000        3.61000
Cu         3.61000       12.63500        5.41500
Cu         5.41500       10.83000        5.41500
Cu         5.41500       12.63500        3.61000
Cu         3.61000       10.83000        7.22000
Cu         3.61000       12.63500        9.02500
Cu         5.41500       10.83000        9.02500
Cu         5.41500       12.63500        7.22000
Cu         3.61000       10.83000       10.83000
Cu         3.61000       12.63500       12.63500
Cu         5.41500       10.83000       12.63500
Cu         5.41500       12.63500       10.83000
Cu         3.61000       10.83000       14.44000
Cu         3.61000       12.63500       16.24500
Cu         5.41500       10.83000       16.24500
Cu         5.41500       12.63500       14.44000
Cu         3.61000       10.83000       18.05000
Cu         3.61000       12.63500       19.85500
Cu         5.41500       10.83000       19.85500
Cu         5.41500       12.63500       18.05000
Cu         3.61000       14.44000      -14.44000
Cu         3.61000       16.24500      -12.63500
Cu         5.41500       14.44000      -12.63500
Cu         3.61000       14.44000      -10.83000
Cu         3.61000       16.24500       -9.02500
Cu         5.41500       14.44000       -9.02500
Cu         5.41500       16.24500      -10.83000
Cu         3.61000       14.44000       -7.22000
Cu         3.61000       16.24500       -5.41500
Cu         5.41500       14.44000       -5.41500
Cu         5.41500       16.24500       -7.22000
Cu         3.61000       14.44000       -3.61000
Cu         3.61000       16.24500       -1.80500
Cu         5.41500       14.44000       -1.80500
Cu         5.41500       16.24500       -3.61000
Cu         3.61000       14.44000        0.00000
Cu         3.61000       16.24500        1.80500
Cu         5.41500       14.44000        1.80500
Cu         5.41500       16.24500        0.00000
Cu         3.61000       14.44000        3.61000
Cu         3.61000       16.24500        5.41500
Cu         5.41500       14.44000        5.41500
Cu         5.41500       16.24500        3.61000
Cu         3.61000       14.44000        7.22000
Cu         3.61000       16.24500        9.02500
Cu         5.41500       14.44000        9.02500
Cu         5.41500       16.24500        7.22000
Cu         3.61000       14.44000       10.83000
Cu         3.61000       16.24500       12.63500
Cu         5.41500       14.44000       12.63500
Cu         5.41500       16.24500       10.83000
Cu         3.61000       14.44000       14.44000
Cu         3.61000       16.24500       16.24500
Cu         5.41500       14.44000       16.24500
Cu         5.41500       16.24500       14.44000
Cu         3.61000       14.44000       18.05000
Cu         3.61000       18.05000      -10.83000
Cu         3.61000       19.85500       -9.02500
Cu         5.41500       18.05000       -9.02500
Cu         3.61000       18.05000       -7.22000
Cu         3.61000       19.85500       -5.41500
Cu         5.41500       18.05000       -5.41500
Cu         5.41500       19.85500       -7.22000
Cu         3.61000       18.05000       -3.61000
Cu         3.61000       19.85500       -1.80500
Cu         5.41500       18.05000       -1.80500
Cu         5.41500       19.85500       -3.61000
Cu         3.61000       18.05000        0.00000
Cu         3.61000       19.85500        1.80500
Cu         5.41500       18.05000        1.80500
Cu         5.41500       19.85500        0.00000
Cu         3.61000       18.05000        3.61000
Cu         3.61000       19.85500        5.41500
Cu         5.41500       18.05000        5.41500
Cu         5.41500       19.85500        3.61000
Cu         3.61000       18.05000        7.22000
Cu         3.61000       19.85500        9.02500
Cu         5.41500       18.05000        9.02500
Cu         5.41500       19.85500        7.22000
Cu         3.61000       18.05000       10.83000
Cu         3.61000       19.85500       12.63500
Cu         5.41500       18.05000       12.63500
Cu         5.41500       19.85500       10.83000
Cu         3.61000       18.05000       14.44000
Cu         7.22000      -16.24500       -9.02500
Cu         7.22000      -18.05000       -7.22000
Cu         7.22000      -16.24500       -5.41500
Cu         9.02500      -18.05000       -5.41500
Cu         9.02500      -16.24500       -7.22000
Cu         7.22000      -18.05000       -3.61000
Cu         7.22000      -16.24500       -1.80500
Cu         9.02500      -18.05000       -1.80500
Cu         9.02500      -16.24500       -3.61000
Cu         7.22000      -18.05000        0.00000
Cu         7.22000      -16.24500        1.80500
Cu         9.02500      -18.05000        1.80500
Cu         9.02500      -16.24500        0.00000
Cu         7.22000      -18.05000        3.61000
Cu         7.22000      -16.24500        5.41500
Cu         9.02500      -18.05000        5.41500
Cu         9.02500      -16.24500        3.61000
Cu         7.22000      -18.05000        7.22000
Cu         7.22000      -16.24500        9.02500
Cu         9.02500      -16.24500        7.22000
Cu         7.22000      -12.63500      -12.63500
Cu         7.22000      -14.44000      -10.83000
Cu         7.22000      -12.63500       -9.02500
Cu         9.02500      -14.44000       -9.02500
Cu         9.02500      -12.63500      -10.83000
Cu         7.22000      -14.44000       -7.22000
Cu         7.22000      -12.63500       -5.41500
Cu         9.02500      -14.44000       -5.41500
Cu         9.02500      -12.63500       -7.22000
Cu         7.22000      -14.44000       -3.61000
Cu         7.22000      -12.63500       -1.80500
Cu         9.02500      -14.44000       -1.80500
Cu         9.02500      -12.63500       -3.61000
Cu         7.22000      -14.44000        0.00000
Cu         7.22000      -12.63500        1.80500
Cu         9.02500      -14.44000        1.80500
Cu         9.02500      -12.63500        0.00000
Cu         7.22000      -14.44000        3.61000
Cu         7.22000      -12.63500        5.41500
Cu         9.02500      -14.44000        5.41500
Cu         9.02500      -12.63500        3.61000
Cu         7.22000      -14.44000        7.22000
Cu         7.22000      -12.63500        9.02500
Cu         9.02500      -14.44000        9.02500
Cu         9.02500      -12.63500        7.22000
Cu         7.22000      -14.44000       10.83000
Cu         7.22000      -12.63500       12.63500
Cu         9.02500      -12.63500       10.83000
Cu         7.22000       -9.02500      -16.24500
Cu         7.22000      -10.83000      -14.44000
Cu         7.22000       -9.02500      -12.63500
Cu         9.02500      -10.83000      -12.63500
Cu         9.02500       -9.02500      -14.44000
Cu         7.22000      -10.83000      -10.83000
Cu         7.22000       -9.02500       -9.02500
Cu         9.02500      -10.83000       -9.02500
Cu         9.02500       -9.02500      -10.83000
Cu         7.22000      -10.83000       -7.22000
Cu         7.22000       -9.02500       -5.41500
Cu         9.02500      -10.83000       -5.41500
Cu         9.02500       -9.02500       -7.22000
Cu         7.22000      -10.83000       -3.61000
Cu         7.22000       -9.02500       -1.80500
Cu         9.02500      -10.83000       -1.80500
Cu         9.02500       -9.02500       -3.61000
Cu         7.22000      -10.83000        0.00000
Cu         7.22000       -9.02500        1.80500
Cu         9.02500      -10.83000        1.80500
Cu         9.02500       -9.02500        0.00000
Cu         7.22000      -10.83000        3.61000
Cu         7.22000       -9.02500        5.41500
Cu         9.02500      -10.83000        5.41500
Cu         9.02500       -9.02500        3.61000
Cu         7.22000      -10.83000        7.22000
Cu         7.22000       -9.02500        9.02500
Cu         9.02500      -10.83000        9.02500
Cu         9.02500       -9.02500        7.22000
Cu         7.22000      -10.83000       10.83000
Cu         7.22000       -9.02500       12.63500
Cu         9.02500      -10.83000       12.63500
Cu         9.02500       -9.02500       10.83000
Cu         7.22000      -10.83000       14.44000
Cu         7.22000       -9.02500       16.24500
Cu         9.02500       -9.02500       14.44000
Cu         7.22000       -7.22000      -18.05000
Cu         7.22000       -5.41500      -16.24500
Cu         9.02500       -7.22000      -16.24500
Cu         9.02500       -5.41500      -18.05000
Cu         7.22000       -7.22000      -14.44000
Cu         7.22000       -5.41500      -12.63500
Cu         9.02500       -7.22000      -12.63500
Cu         9.02500       -5.41500      -14.44000
Cu         7.22000       -7.22000      -10.83000
Cu         7.22000       -5.41500       -9.02500
Cu         9.02500       -7.22000       -9.02500
Cu         9.02500       -5.41500      -10.83000
Cu         7.22000       -7.22000       -7.22000
Cu         7.22000       -5.41500       -5.41500
Cu         9.02500       -7.22000       -5.41500
Cu         9.02500       -5.41500       -7.22000
Cu         7.22000       -7.22000       -3.61000
Cu         7.22000       -5.41500       -1.80500
Cu         9.02500       -7.22000       -1.80500
Cu         9.02500       -5.41500       -3.61000
Cu         7.22000       -7.22000        0.00000
Cu         7.22000       -5.41500        1.80500
Cu         9.02500       -7.22000        1.80500
Cu         9.02500       -5.41500        0.00000
Cu         7.22000       -7.22000        3.61000
Cu         7.22000       -5.41500        5.41500
Cu         9.02500       -7.22000        5.41500
Cu         9.02500       -5.41500        3.61000
Cu         7.22000       -7.22000        7.22000
Cu         7.22000       -5.41500        9.02500
Cu         9.02500       -7.22000        9.02500
Cu         9.02500       -5.41500        7.22000
Cu         7.22000       -7.22000       10.83000
Cu         7.22000       -5.41500       12.63500
Cu         9.02500       -7.22000       12.63500
Cu         9.02500       -5.41500       10.83000
Cu         7.22000       -7.22000       14.44000
Cu         7.22000       -5.41500       16.24500
Cu         9.02500       -7.22000       16.24500
Cu         9.02500       -5.41500       14.44000
Cu         7.22000       -7.22000       18.05000
Cu         7.22000       -5.41500       19.85500
Cu         9.02500       -5.41500       18.05000
Cu         7.22000       -3.61000      -18.05000
Cu         7.22000       -1.80500      -16.24500
Cu         9.02500       -3.61000      -16.24500
Cu         9.02500       -1.80500      -18.05000
Cu         7.22000       -3.61000      -14.44000
Cu         7.22000       -1.80500      -12.63500
Cu         9.02500       -3.61000      -12.63500
Cu         9.02500       -1.80500      -14.44000
Cu         7.22000       -3.61000      -10.83000
Cu         7.22000       -1.80500       -9.02500
Cu         9.02500       -3.61000       -9.02500
Cu         9.02500       -1.80500      -10.83000
Cu         7.22000       -3.61000       -7.22000
Cu         7.22000       -1.80500       -5.41500
Cu         9.02500       -3.61000       -5.41500
Cu         9.02500       -1.80500       -7.22000
Cu         7.22000       -3.61000       -3.61000
Cu         7.22000       -1.80500       -1.80500
Cu         9.02500       -3.61000       -1.80500
Cu         9.02500       -1.80500       -3.61000
Cu         7.22000       -3.61000        0.00000
Cu         7.22000       -1.80500        1.80500
Cu         9.02500       -3.61000        1.80500
Cu         9.02500       -1.80500        0.00000
Cu         7.22000       -3.61000        3.61000
Cu         7.22000       -1.80500        5.41500
Cu         9.02500       -3.61000        5.41500
Cu         9.02500       -1.80500        3.61000
Cu         7.22000       -3.61000        7.22000
Cu         7.22000       -1.80500        9.02500
Cu         9.02500       -3.61000        9.02500
Cu         9.02500       -1.80500        7.22000
Cu         7.22000       -3.61000       10.83000
Cu         7.22000       -1.80500       12.63500
Cu         9.02500       -3.61000       12.63500
Cu         9.02500       -1.80500       10.83000
Cu         7.22000       -3.61000       14.44000
Cu         7.22000       -1.80500       16.24500
Cu         9.02500       -3.61000       16.24500
Cu         9.02500       -1.80500       14.44000
Cu         7.22000       -3.61000       18.05000
Cu         7.22000       -1.80500       19.85500
Cu         9.02500       -3.61000       19.85500
Cu         9.02500       -1.80500       18.05000
Cu         7.22000       -0.00000      -18.05000
Cu         7.22000        1.80500      -16.24500
Cu         9.02500       -0.00000      -16.24500
Cu         9.02500        1.80500      -18.05000
Cu         7.22000       -0.00000      -14.44000
Cu         7.22000        1.80500      -12.63500
Cu         9.02500       -0.00000      -12.63500
Cu         9.02500        1.80500      -14.44000
Cu         7.22000       -0.00000      -10.83000
Cu         7.22000        1.80500       -9.02500
Cu         9.02500       -0.00000       -9.02500
Cu         9.02500        1.80500      -10.83000
Cu         7.22000       -0.00000       -7.22000
Cu         7.22000        1.80500       -5.41500
Cu         9.02500       -0.00000       -5.41500
Cu         9.02500        1.80500       -7.22000
Cu         7.22000       -0.00000       -3.61000
Cu         7.22000        1.80500       -1.80500
Cu         9.02500       -0.00000       -1.80500
Cu         9.02500        1.80500       -3.61000
Cu         7.22000        0.00000        0.00000
Cu         7.22000        1.80500        1.80500
Cu         9.02500        0.00000        1.80500
Cu         9.02500        1.80500        0.00000
Cu         7.22000        0.00000        3.61000
Cu         7.22000        1.80500        5.41500
Cu         9.02500        0.00000        5.41500
Cu         9.02500        1.80500        3.61000
Cu         7.22000        0.00000        7.22000
Cu         7.22000        1.80500        9.02500
Cu         9.02500        0.00000        9.02500
Cu         9.02500        1.80500        7.22000
Cu         7.22000        0.00000       10.83000
Cu         7.22000        1.80500       12.63500
Cu         9.02500        0.00000       12.63500
Cu         9.02500        1.80500       10.83000
Cu         7.22000        0.00000       14.44000
Cu         7.22000        1.80500       16.24500
Cu         9.02500        0.00000       16.24500
Cu         9.02500        1.80500       14.44000
Cu         7.22000        0.00000       18.05000
Cu         7.22000        1.80500       19.85500
Cu         9.02500        0.00000       19.85500
Cu         9.02500        1.80500       18.05000
Cu         7.22000        3.61000      -18.05000
Cu         7.22000        5.41500      -16.24500
Cu         9.02500        3.61000      -16.24500
Cu         9.02500        5.41500      -18.05000
Cu         7.22000        3.61000      -14.44000
Cu         7.22000        5.41500      -12.63500
Cu         9.02500        3.61000      -12.63500
Cu         9.02500        5.41500      -14.44000
Cu         7.22000        3.61000      -10.83000
Cu         7.22000        5.41500       -9.02500
Cu         9.02500        3.61000       -9.02500
Cu         9.02500        5.41500      -10.83000
Cu         7.22000        3.61000       -7.22000
Cu         7.22000        5.41500       -5.41500
Cu         9.02500        3.61000       -5.41500
Cu         9.02500        5.41500       -7.22000
Cu         7.22000        3.61000       -3.61000
Cu         7.22000        5.41500       -1.80500
Cu         9.02500        3.61000       -1.80500
Cu         9.02500        5.41500       -3.61000
Cu         7.22000        3.61000        0.00000
Cu         7.22000        5.41500        1.80500
Cu         9.02500        3.61000        1.80500
Cu         9.02500        5.41500        0.00000
Cu         7.22000        3.61000        3.61000
Cu         7.22000        5.41500        5.41500
Cu         9.02500        3.61000        5.41500
Cu         9.02500        5.41500        3.61000
Cu         7.22000        3.61000        7.22000
Cu         7.22000        5.41500        9.02500
Cu         9.02500        3.61000        9.02500
Cu         9.02500        5.41500        7.22000
Cu         7.22000        3.61000       10.83000
Cu         7.22000        5.41500       12.63500
Cu         9.02500        3.61000       12.63500
Cu         9.02500        5.41500       10.83000
Cu         7.22000        3.61000       14.44000
Cu         7.22000        5.41500       16.24500
Cu         9.02500        3.61000       16.24500
Cu         9.02500        5.41500       14.44000
Cu         7.22000        3.61000       18.05000
Cu         7.22000        5.41500       19.85500
Cu         9.02500        3.61000       19.85500
Cu         9.02500        5.41500       18.05000
Cu         7.22000        7.22000      -18.05000
Cu         7.22000        9.02500      -16.24500
Cu         9.02500        7.22000      -16.24500
Cu         7.22000        7.22000      -14.44000
Cu         7.22000        9.02500      -12.63500
Cu         9.02500        7.22000      -12.63500
Cu         9.02500        9.02500      -14.44000
Cu         7.22000        7.22000      -10.83000
Cu         7.22000        9.02500       -9.02500
Cu         9.02500        7.22000       -9.02500
Cu         9.02500        9.02500      -10.83000
Cu         7.22000        7.22000       -7.22000
Cu         7.22000        9.02500       -5.41500
Cu         9.02500        7.22000       -5.41500
Cu         9.02500        9.02500       -7.22000
Cu         7.22000        7.22000       -3.61000
Cu         7.22000        9.02500       -1.80500
Cu         9.02500        7.22000       -1.80500
Cu         9.02500        9.02500       -3.61000
Cu         7.22000        7.22000        0.00000
Cu         7.22000        9.02500        1.80500
Cu         9.02500        7.22000        1.80500
Cu         9.02500        9.02500        0.00000
Cu         7.22000        7.22000        3.61000
Cu         7.22000        9.02500        5.41500
Cu         9.02500        7.22000        5.41500
Cu         9.02500        9.02500        3.61000
Cu         7.22000        7.22000        7.22000
Cu         7.22000        9.02500        9.02500
Cu         9.02500        7.22000        9.02500
Cu         9.02500        9.02500        7.22000
Cu         7.22000        7.22000       10.83000
Cu         7.22000        9.02500       12.63500
Cu         9.02500        7.22000       12.63500
Cu         9.02500        9.02500       10.83000
Cu         7.22000        7.22000       14.44000
Cu         7.22000        9.02500       16.24500
Cu         9.02500        7.22000       16.24500
Cu         9.02500        9.02500       14.44000
Cu         7.22000        7.22000       18.05000
Cu         7.22000        9.02500       19.85500
Cu         9.02500        7.22000       19.85500
Cu         9.02500        9.02500       18.05000
Cu         7.22000       10.83000      -14.44000
Cu         7.22000       12.63500      -12.63500
Cu         9.02500       10.83000      -12.63500
Cu         7.22000       10.83000      -10.83000
Cu         7.22000       12.63500       -9.02500
Cu         9.02500       10.83000       -9.02500
Cu         9.02500       12.63500      -10.83000
Cu         7.22000       10.83000       -7.22000
Cu         7.22000       12.63500       -5.41500
Cu         9.02500       10.83000       -5.41500
Cu         9.02500       12.63500       -7.22000
Cu         7.22000       10.83000       -3.61000
Cu         7.22000       12.63500       -1.80500
Cu         9.02500       10.83000       -1.80500
Cu         9.02500       12.63500       -3.61000
Cu         7.22000       10.83000        0.00000
Cu         7.22000       12.63500        1.80500
Cu         9.02500       10.83000        1.80500
Cu         9.02500       12.63500        0.00000
Cu         7.22000       10.83000        3.61000
Cu         7.22000       12.63500        5.41500
Cu         9.02500       10.83000        5.41500
Cu         9.02500       12.63500        3.61000
Cu         7.22000       10.83000        7.22000
Cu         7.22000       12.63500        9.02500
Cu         9.02500       10.83000        9.02500
Cu         9.02500       12.63500        7.22000
Cu         7.22000       10.83000       10.83000
Cu         7.22000       12.63500       12.63500
Cu         9.02500       10.83000       12.63500
Cu         9.02500       12.63500       10.83000
Cu         7.22000       10.83000       14.44000
Cu         7.22000       12.63500       16.24500
Cu         9.02500       10.83000       16.24500
Cu         9.02500       12.63500       14.44000
Cu         7.22000       10.83000       18.05000
Cu         7.22000       14.44000      -10.83000
Cu         7.22000       16.24500       -9.02500
Cu         9.02500       14.44000       -9.02500
Cu         7.22000       14.44000       -7.22000
Cu         7.22000       16.24500       -5.41500
Cu         9.02500       14.44000       -5.41500
Cu         9.02500       16.24500       -7.22000
Cu         7.22000       14.44000       -3.61000
Cu         7.22000       16.24500       -1.80500
Cu         9.02500       14.44000       -1.80500
Cu         9.02500       16.24500       -3.61000
Cu         7.22000       14.44000        0.00000
Cu         7.22000       16.24500        1.80500
Cu         9.02500       14.44000        1.80500
Cu         9.02500       16.24500        0.00000
Cu         7.22000       14.44000        3.61000
Cu         7.22000       16.24500        5.41500
Cu         9.02500       14.44000        5.41500
Cu         9.02500       16.24500        3.61000
Cu         7.22000       14.44000        7.22000
Cu         7.22000       16.24500        9.02500
Cu         9.02500       14.44000        9.02500
Cu         9.02500       16.24500        7.22000
Cu         7.22000       14.44000       10.83000
Cu         7.22000       16.24500       12.63500
Cu         9.02500       14.44000       12.63500
Cu         9.02500       16.24500       10.83000
Cu         7.22000       14.44000       14.44000
Cu         7.22000       18.05000       -7.22000
Cu         7.22000       19.85500       -5.41500
Cu         9.02500       18.05000       -5.41500
Cu         7.22000       18.05000       -3.61000
Cu         7.22000       19.85500       -1.80500
Cu         9.02500       18.05000       -1.80500
Cu         9.02500       19.85500       -3.61000
Cu         7.22000       18.05000        0.00000
Cu         7.22000       19.85500        1.80500
Cu         9.02500       18.05000        1.80500
Cu         9.02500       19.85500        0.00000
Cu         7.22000       18.05000        3.61000
Cu         7.22000       19.85500        5.41500
Cu         9.02500       18.05000        5.41500
Cu         9.02500       19.85500        3.61000
Cu         7.22000       18.05000        7.22000
Cu         7.22000       19.85500        9.02500
Cu         9.02500       18.05000        9.02500
Cu         9.02500       19.85500        7.22000
Cu         7.22000       18.05000       10.83000
Cu        10.83000      -16.24500       -5.41500
Cu        10.83000      -18.05000       -3.61000
Cu        10.83000      -16.24500       -1.80500
Cu        12.63500      -18.05000       -1.80500
Cu        12.63500      -16.24500       -3.61000
Cu        10.83000      -18.05000        0.00000
Cu        10.83000      -16.24500        1.80500
Cu        12.63500      -18.05000        1.80500
Cu        12.63500      -16.24500        0.00000
Cu        10.83000      -18.05000        3.61000
Cu        10.83000      -16.24500        5.41500
Cu        12.63500      -16.24500        3.61000
Cu        10.83000      -12.63500       -9.02500
Cu        10.83000      -14.44000       -7.22000
Cu        10.83000      -12.63500       -5.41500
Cu        12.63500      -14.44000       -5.41500
Cu        12.63500      -12.63500       -7.22000
Cu        10.83000      -14.44000       -3.61000
Cu        10.83000      -12.63500       -1.80500
Cu        12.63500      -14.44000       -1.80500
Cu        12.63500      -12.63500       -3.61000
Cu        10.83000      -14.44000        0.00000
Cu        10.83000      -12.63500        1.80500
Cu        12.63500      -14.44000        1.80500
Cu        12.63500      -12.63500        0.00000
Cu        10.83000      -14.44000        3.61000
Cu        10.83000      -12.63500        5.41500
Cu        12.63500      -14.44000        5.41500
Cu        12.63500      -12.63500        3.61000
Cu        10.83000      -14.44000        7.22000
Cu        10.83000      -12.63500        9.02500
Cu        12.63500      -12.63500        7.22000
Cu        10.83000       -9.02500      -12.63500
Cu        10.83000      -10.83000      -10.83000
Cu        10.83000       -9.02500       -9.02500
Cu        12.63500      -10.83000       -9.02500
Cu        12.63500       -9.02500      -10.83000
Cu        10.83000      -10.83000       -7.22000
Cu        10.83000       -9.02500       -5.41500
Cu        12.63500      -10.83000       -5.41500
Cu        12.63500       -9.02500       -7.22000
Cu        10.83000      -10.83000       -3.61000
Cu        10.83000       -9.02500       -1.80500
Cu        12.63500      -10.83000       -1.80500
Cu        12.63500       -9.02500       -3.61000
Cu        10.83000      -10.83000        0.00000
Cu        10.83000       -9.02500        1.80500
Cu        12.63500      -10.83000        1.80500
Cu        12.63500       -9.02500        0.00000
Cu        10.83000      -10.83000        3.61000
Cu        10.83000       -9.02500        5.41500
Cu        12.63500      -10.83000        5.41500
Cu        12.63500       -9.02500        3.61000
Cu        10.83000      -10.83000        7.22000
Cu        10.83000       -9.02500        9.02500
Cu        12.63500      -10.83000        9.02500
Cu        12.63500       -9.02500        7.22000
Cu        10.83000      -10.83000       10.83000
Cu        10.83000       -9.02500       12.63500
Cu        12.63500       -9.02500       10.83000
Cu        10.83000       -5.41500      -16.24500
Cu        10.83000       -7.22000      -14.44000
Cu        10.83000       -5.41500      -12.63500
Cu        12.63500       -7.22000      -12.63500
Cu        12.63500       -5.41500      -14.44000
Cu        10.83000       -7.22000      -10.83000
Cu        10.83000       -5.41500       -9.02500
Cu        12.63500       -7.22000       -9.02500
Cu        12.63500       -5.41500      -10.83000
Cu        10.83000       -7.22000       -7.22000
Cu        10.83000       -5.41500       -5.41500
Cu        12.63500       -7.22000       -5.41500
Cu        12.63500       -5.41500       -7.22000
Cu        10.83000       -7.22000       -3.61000
Cu        10.83000       -5.41500       -1.80500
Cu        12.63500       -7.22000       -1.80500
Cu        12.63500       -5.41500       -3.61000
Cu        10.83000       -7.22000        0.00000
Cu        10.83000       -5.41500        1.80500
Cu        12.63500       -7.22000        1.80500
Cu        12.63500       -5.41500        0.00000
Cu        10.83000       -7.22000        3.61000
Cu        10.83000       -5.41500        5.41500
Cu        12.63500       -7.22000        5.41500
Cu        12.63500       -5.41500        3.61000
Cu        10.83000       -7.22000        7.22000
Cu        10.83000       -5.41500        9.02500
Cu        12.63500       -7.22000        9.02500
Cu        12.63500       -5.41500        7.22000
Cu        10.83000       -7.22000       10.83000
Cu        10.83000       -5.41500       12.63500
Cu        12.63500       -7.22000       12.63500
Cu        12.63500       -5.41500       10.83000
Cu        10.83000       -7.22000       14.44000
Cu        10.83000       -5.41500       16.24500
Cu        12.63500       -5.41500       14.44000
Cu        10.83000       -3.61000      -18.05000
Cu        10.83000       -1.80500      -16.24500
Cu        12.63500       -3.61000      -16.24500
Cu        12.63500       -1.80500      -18.05000
Cu        10.83000       -3.61000      -14.44000
Cu        10.83000       -1.80500      -12.63500
Cu        12.63500       -3.61000      -12.63500
Cu        12.63500       -1.80500      -14.44000
Cu        10.83000       -3.61000      -10.83000
Cu        10.83000       -1.80500       -9.02500
Cu        12.63500       -3.61000       -9.02500
Cu        12.63500       -1.80500      -10.83000
Cu        10.83000       -3.61000       -7.22000
Cu        10.83000       -1.80500       -5.41500
Cu        12.63500       -3.61000       -5.41500
Cu        12.63500       -1.80500       -7.22000
Cu        10.83000       -3.61000       -3.61000
Cu        10.83000       -1.80500       -1.80500
Cu        12.63500       -3.61000       -1.80500
Cu        12.63500       -1.80500       -3.61000
Cu        10.83000       -3.61000        0.00000
Cu        10.83000       -1.80500        1.80500
Cu        12.63500       -3.61000        1.80500
Cu        12.63500       -1.80500        0.00000
Cu        10.83000       -3.61000        3.61000
Cu        10.83000       -1.80500        5.41500
Cu        12.63500       -3.61000        5.41500
Cu        12.63500       -1.80500        3.61000
Cu        10.83000       -3.61000        7.22000
Cu        10.83000       -1.80500        9.02500
Cu        12.63500       -3.61000        9.02500
Cu        12.63500       -1.80500        7.22000
Cu        10.83000       -3.61000       10.83000
Cu        10.83000       -1.80500       12.63500
Cu        12.63500       -3.61000       12.63500
Cu        12.63500       -1.80500       10.83000
Cu        10.83000       -3.61000       14.44000
Cu        10.83000       -1.80500       16.24500
Cu        12.63500       -3.61000       16.24500
Cu        12.63500       -1.80500       14.44000
Cu        10.83000       -3.61000       18.05000
Cu        10.83000       -1.80500       19.85500
Cu        12.63500       -1.80500       18.05000
Cu        10.83000       -0.00000      -18.05000
Cu        10.83000        1.80500      -16.24500
Cu        12.63500       -0.00000      -16.24500
Cu        12.63500        1.80500      -18.05000
Cu        10.83000       -0.00000      -14.44000
Cu        10.83000        1.80500      -12.63500
Cu        12.63500       -0.00000      -12.63500
Cu        12.63500        1.80500      -14.44000
Cu        10.83000       -0.00000      -10.83000
Cu        10.83000        1.80500       -9.02500
Cu        12.63500       -0.00000       -9.02500
Cu        12.63500        1.80500      -10.83000
Cu        10.83000       -0.00000       -7.22000
Cu        10.83000        1.80500       -5.41500
Cu        12.63500       -0.00000       -5.41500
Cu        12.63500        1.80500       -7.22000
Cu        10.83000       -0.00000       -3.61000
Cu        10.83000        1.80500       -1.80500
Cu        12.63500       -0.00000       -1.80500
Cu        12.63500        1.80500       -3.61000
Cu        10.83000        0.00000        0.00000
Cu        10.83000        1.80500        1.80500
Cu        12.63500        0.00000        1.80500
Cu        12.63500        1.80500        0.00000
Cu        10.83000        0.00000        3.61000
Cu        10.83000        1.80500        5.41500
Cu        12.63500        0.00000        5.41500
Cu        12.63500        1.80500        3.61000
Cu        10.83000        0.00000        7.22000
Cu        10.83000        1.80500        9.02500
Cu        12.63500        0.00000        9.02500
Cu        12.63500        1.80500        7.22000
Cu        10.83000        0.00000       10.83000
Cu        10.83000        1.80500       12.63500
Cu        12.63500        0.00000       12.63500
Cu        12.63500        1.80500       10.83000
Cu        10.83000        0.00000       14.44000
Cu        10.83000        1.80500       16.24500
Cu        12.63500        0.00000       16.24500
Cu        12.63500        1.80500       14.44000
Cu        10.83000        0.00000       18.05000
Cu        10.83000        1.80500       19.85500
Cu        12.63500        0.00000       19.85500
Cu        12.63500        1.80500       18.05000
Cu        10.83000        3.61000      -18.05000
Cu        10.83000        5.41500      -16.24500
Cu        12.63500        3.61000      -16.24500
Cu        10.83000        3.61000      -14.44000
Cu        10.83000        5.41500      -12.63500
Cu        12.63500        3.61000      -12.63500
Cu        12.63500        5.41500      -14.44000
Cu        10.83000        3.61000      -10.83000
Cu        10.83000        5.41500       -9.02500
Cu        12.63500        3.61000       -9.02500
Cu        12.63500        5.41500      -10.83000
Cu        10.83000        3.61000       -7.22000
Cu        10.83000        5.41500       -5.41500
Cu        12.63500        3.61000       -5.41500
Cu        12.63500        5.41500       -7.22000
Cu        10.83000        3.61000       -3.61000
Cu        10.83000        5.41500       -1.80500
Cu        12.63500        3.61000       -1.80500
Cu        12.63500        5.41500       -3.61000
Cu        10.83000        3.61000        0.00000
Cu        10.83000        5.41500        1.80500
Cu        12.63500        3.61000        1.80500
Cu        12.63500        5.41500        0.00000
Cu        10.83000        3.61000        3.61000
Cu        10.83000        5.41500        5.41500
Cu        12.63500        3.61000        5.41500
Cu        12.63500        5.41500        3.61000
Cu        10.83000        3.61000        7.22000
Cu        10.83000        5.41500        9.02500
Cu        12.63500        3.61000        9.02500
Cu        12.63500        5.41500        7.22000
Cu        10.83000        3.61000       10.83000
Cu        10.83000        5.41500       12.63500
Cu        12.63500        3.61000       12.63500
Cu        12.63500        5.41500       10.83000
Cu        10.83000        3.61000       14.44000
Cu        10.83000        5.41500       16.24500
Cu        12.63500        3.61000       16.24500
Cu        12.63500        5.41500       14.44000
Cu        10.83000        3.61000       18.05000
Cu        10.83000        5.41500       19.85500
Cu        12.63500        3.61000       19.85500
Cu        12.63500        5.41500       18.05000
Cu        10.83000        7.22000      -14.44000
Cu        10.83000        9.02500      -12.63500
Cu        12.63500        7.22000      -12.63500
Cu        10.83000        7.22000      -10.83000
Cu        10.83000        9.02500       -9.02500
Cu        12.63500        7.22000       -9.02500
Cu        12.63500        9.02500      -10.83000
Cu        10.83000        7.22000       -7.22000
Cu        10.83000        9.02500       -5.41500
Cu        12.63500        7.22000       -5.41500
Cu        12.63500        9.02500       -7.22000
Cu        10.83000        7.22000       -3.61000
Cu        10.83000        9.02500       -1.80500
Cu        12.63500        7.22000       -1.80500
Cu        12.63500        9.02500       -3.61000
Cu        10.83000        7.22000        0.00000
Cu        10.83000        9.02500        1.80500
Cu        12.63500        7.22000        1.80500
Cu        12.63500        9.02500        0.00000
Cu        10.83000        7.22000        3.61000
Cu        10.83000        9.02500        5.41500
Cu        12.63500        7.22000        5.41500
Cu        12.63500        9.02500        3.61000
Cu        10.83000        7.22000        7.22000
Cu        10.83000        9.02500        9.02500
Cu        12.63500        7.22000        9.02500
Cu        12.63500        9.02500        7.22000
Cu        10.83000        7.22000       10.83000
Cu        10.83000        9.02500       12.63500
Cu        12.63500        7.22000       12.63500
Cu        12.63500        9.02500       10.83000
Cu        10.83000        7.22000       14.44000
Cu        10.83000        9.02500       16.24500
Cu        12.63500        7.22000       16.24500
Cu        12.63500        9.02500       14.44000
Cu        10.83000        7.22000       18.05000
Cu        10.83000       10.83000      -10.83000
Cu        10.83000       12.63500       -9.02500
Cu        12.63500       10.83000       -9.02500
Cu        10.83000       10.83000       -7.22000
Cu        10.83000       12.63500       -5.41500
Cu        12.63500       10.83000       -5.41500
Cu        12.63500       12.63500       -7.22000
Cu        10.83000       10.83000       -3.61000
Cu        10.83000       12.63500       -1.80500
Cu        12.63500       10.83000       -1.80500
Cu        12.63500       12.63500       -3.61000
Cu        10.83000       10.83000        0.00000
Cu        10.83000       12.63500        1.80500
Cu        12.63500       10.83000        1.80500
Cu        12.63500       12.63500        0.00000
Cu        10.83000       10.83000        3.61000
Cu        10.83000       12.63500        5.41500
Cu        12.63500       10.83000        5.41500
Cu        12.63500       12.63500        3.61000
Cu        10.83000       10.83000        7.22000
Cu        10.83000       12.63500        9.02500
Cu        12.63500       10.83000        9.02500
Cu        12.63500       12.63500        7.22000
Cu        10.83000       10.83000       10.83000
Cu        10.83000       12.63500       12.63500
Cu        12.63500       10.83000       12.63500
Cu        12.63500       12.63500       10.83000
Cu        10.83000       10.83000       14.44000
Cu        10.83000       14.44000       -7.22000
Cu        10.83000       16.24500       -5.41500
Cu        12.63500       14.44000       -5.41500
Cu        10.83000       14.44000       -3.61000
Cu        10.83000       16.24500       -1.80500
Cu        12.63500       14.44000       -1.80500
Cu        12.63500       16.24500       -3.61000
Cu        10.83000       14.44000        0.00000
Cu        10.83000       16.24500        1.80500
Cu        12.63500       14.44000        1.80500
Cu        12.63500       16.24500        0.00000
Cu        10.83000       14.44000        3.61000
Cu        10.83000       16.24500        5.41500
Cu        12.63500       14.44000        5.41500
Cu        12.63500       16.24500        3.61000
Cu        10.83000       14.44000        7.22000
Cu        10.83000       16.24500        9.02500
Cu        12.63500       14.44000        9.02500
Cu        12.63500       16.24500        7.22000
Cu        10.83000       14.44000       10.83000
Cu        10.83000       18.05000       -3.61000
Cu        10.83000       19.85500       -1.80500
Cu        12.63500       18.05000       -1.80500
Cu        10.83000       18.05000        0.00000
Cu        10.83000       19.85500        1.80500
Cu        12.63500       18.05000        1.80500
Cu        12.63500       19.85500        0.00000
Cu        10.83000       18.05000        3.61000
Cu        10.83000       19.85500        5.41500
Cu        12.63500       18.05000        5.41500
Cu        12.63500       19.85500        3.61000
Cu        10.83000       18.05000        7.22000
Cu        14.44000      -16.24500       -1.80500
Cu        14.44000      -18.05000        0.00000
Cu        14.44000      -16.24500        1.80500
Cu        16.24500      -16.24500        0.00000
Cu        14.44000      -12.63500       -5.41500
Cu        14.44000      -14.44000       -3.61000
Cu        14.44000      -12.63500       -1.80500
Cu        16.24500      -14.44000       -1.80500
Cu        16.24500      -12.63500       -3.61000
Cu        14.44000      -14.44000        0.00000
Cu        14.44000      -12.63500        1.80500
Cu        16.24500      -14.44000        1.80500
Cu        16.24500      -12.63500        0.00000
Cu        14.44000      -14.44000        3.61000
Cu        14.44000      -12.63500        5.41500
Cu        16.24500      -12.63500        3.61000
Cu        14.44000       -9.02500       -9.02500
Cu        14.44000      -10.83000       -7.22000
Cu        14.44000       -9.02500       -5.41500
Cu        16.24500      -10.83000       -5.41500
Cu        16.24500       -9.02500       -7.22000
Cu        14.44000      -10.83000       -3.61000
Cu        14.44000       -9.02500       -1.80500
Cu        16.24500      -10.83000       -1.80500
Cu        16.24500       -9.02500       -3.61000
Cu        14.44000      -10.83000        0.00000
Cu        14.44000       -9.02500        1.80500
Cu        16.24500      -10.83000        1.80500
Cu        16.24500       -9.02500        0.00000
Cu        14.44000      -10.83000        3.61000
Cu        14.44000       -9.02500        5.41500
Cu        16.24500      -10.83000        5.41500
Cu        16.24500       -9.02500        3.61000
Cu        14.44000      -10.83000        7.22000
Cu        14.44000       -9.02500        9.02500
Cu        16.24500       -9.02500        7.22000
Cu        14.44000       -5.41500      -12.63500
Cu        14.44000       -7.22000      -10.83000
Cu        14.44000       -5.41500       -9.02500
Cu        16.24500       -7.22000       -9.02500
Cu        16.24500       -5.41500      -10.83000
Cu        14.44000       -7.22000       -7.22000
Cu        14.44000       -5.41500       -5.41500
Cu        16.24500       -7.22000       -5.41500
Cu        16.24500       -5.41500       -7.22000
Cu        14.44000       -7.22000       -3.61000
Cu        14.44000       -5.41500       -1.80500
Cu        16.24500       -7.22000       -1.80500
Cu        16.24500       -5.41500       -3.61000
Cu        14.44000       -7.22000        0.00000
Cu        14.44000       -5.41500        1.80500
Cu        16.24500       -7.22000        1.80500
Cu        16.24500       -5.41500        0.00000
Cu        14.44000       -7.22000        3.61000
Cu        14.44000       -5.41500        5.41500
Cu        16.24500       -7.22000        5.41500
Cu        16.24500       -5.41500        3.61000
Cu        14.44000       -7.22000        7.22000
Cu        14.44000       -5.41500        9.02500
Cu        16.24500       -7.22000        9.02500
Cu        16.24500       -5.41500        7.22000
Cu        14.44000       -7.22000       10.83000
Cu        14.44000       -5.41500       12.63500
Cu        16.24500       -5.41500       10.83000
Cu        14.44000       -1.80500      -16.24500
Cu        14.44000       -3.61000      -14.44000
Cu        14.44000       -1.80500      -12.63500
Cu        16.24500       -3.61000      -12.63500
Cu        16.24500       -1.80500      -14.44000
Cu        14.44000       -3.61000      -10.83000
Cu        14.44000       -1.80500       -9.02500
Cu        16.24500       -3.61000       -9.02500
Cu        16.24500       -1.80500      -10.83000
Cu        14.44000       -3.61000       -7.22000
Cu        14.44000       -1.80500       -5.41500
Cu        16.24500       -3.61000       -5.41500
Cu        16.24500       -1.80500       -7.22000
Cu        14.44000       -3.61000       -3.61000
Cu        14.44000       -1.80500       -1.80500
Cu        16.24500       -3.61000       -1.80500
Cu        16.24500       -1.80500       -3.61000
Cu        14.44000       -3.61000        0.00000
Cu        14.44000       -1.80500        1.80500
Cu        16.24500       -3.61000        1.80500
Cu        16.24500       -1.80500        0.00000
Cu        14.44000       -3.61000        3.61000
Cu        14.44000       -1.80500        5.41500
Cu        16.24500       -3.61000        5.41500
Cu        16.24500       -1.80500        3.61000
Cu        14.44000       -3.61000        7.22000
Cu        14.44000       -1.80500        9.02500
Cu        16.24500       -3.61000        9.02500
Cu        16.24500       -1.80500        7.22000
Cu        14.44000       -3.61000       10.83000
Cu        14.44000       -1.80500       12.63500
Cu        16.24500       -3.61000       12.63500
Cu        16.24500       -1.80500       10.83000
Cu        14.44000       -3.61000       14.44000
Cu        14.44000       -1.80500       16.24500
Cu        16.24500       -1.80500       14.44000
Cu        14.44000       -0.00000      -18.05000
Cu        14.44000        1.80500      -16.24500
Cu        16.24500       -0.00000      -16.24500
Cu        14.44000       -0.00000      -14.44000
Cu        14.44000        1.80500      -12.63500
Cu        16.24500       -0.00000      -12.63500
Cu        16.24500        1.80500      -14.44000
Cu        14.44000       -0.00000      -10.83000
Cu        14.44000        1.80500       -9.02500
Cu        16.24500       -0.00000       -9.02500
Cu        16.24500        1.80500      -10.83000
Cu        14.44000       -0.00000       -7.22000
Cu        14.44000        1.80500       -5.41500
Cu        16.24500       -0.00000       -5.41500
Cu        16.24500        1.80500       -7.22000
Cu        14.44000       -0.00000       -3.61000
Cu        14.44000        1.80500       -1.80500
Cu        16.24500       -0.00000       -1.80500
Cu        16.24500        1.80500       -3.61000
Cu        14.44000        0.00000        0.00000
Cu        14.44000        1.80500        1.80500
Cu        16.24500        0.00000        1.80500
Cu        16.24500        1.80500        0.00000
Cu        14.44000        0.00000        3.61000
Cu        14.44000        1.80500        5.41500
Cu        16.24500        0.00000        5.41500
Cu        16.24500        1.80500        3.61000
Cu        14.44000        0.00000        7.22000
Cu        14.44000        1.80500        9.02500
Cu        16.24500        0.00000        9.02500
Cu        16.24500        1.80500        7.22000
Cu        14.44000        0.00000       10.83000
Cu        14.44000        1.80500       12.63500
Cu        16.24500        0.00000       12.63500
Cu        16.24500        1.80500       10.83000
Cu        14.44000        0.00000       14.44000
Cu        14.44000        1.80500       16.24500
Cu        16.24500        0.00000       16.24500
Cu        16.24500        1.80500       14.44000
Cu        14.44000        0.00000       18.05000
Cu        14.44000        1.80500       19.85500
Cu        16.24500        1.80500       18.05000
Cu        14.44000        3.61000      -14.44000
Cu        14.44000        5.41500      -12.63500
Cu        16.24500        3.61000      -12.63500
Cu        14.44000        3.61000      -10.83000
Cu        14.44000        5.41500       -9.02500
Cu        16.24500        3.61000       -9.02500
Cu        16.24500        5.41500      -10.83000
Cu        14.44000        3.61000       -7.22000
Cu        14.44000        5.41500       -5.41500
Cu        16.24500        3.61000       -5.41500
Cu        16.24500        5.41500       -7.22000
Cu        14.44000        3.61000       -3.61000
Cu        14.44000        5.41500       -1.80500
Cu        16.24500        3.61000       -1.80500
Cu        16.24500        5.41500       -3.61000
Cu        14.44000        3.61000        0.00000
Cu        14.44000        5.41500        1.80500
Cu        16.24500        3.61000        1.80500
Cu        16.24500        5.41500        0.00000
Cu        14.44000        3.61000        3.61000
Cu        14.44000        5.41500        5.41500
Cu        16.24500        3.61000        5.41500
Cu        16.24500        5.41500        3.61000
Cu        14.44000        3.61000        7.22000
Cu        14.44000        5.41500        9.02500
Cu        16.24500        3.61000        9.02500
Cu        16.24500        5.41500        7.22000
Cu        14.44000        3.61000       10.83000
Cu        14.44000        5.41500       12.63500
Cu        16.24500        3.61000       12.63500
Cu        16.24500        5.41500       10.83000
Cu        14.44000        3.61000       14.44000
Cu        14.44000        5.41500       16.24500
Cu        16.24500        3.61000       16.24500
Cu        16.24500        5.41500       14.44000
Cu        14.44000        3.61000       18.05000
Cu        14.44000        7.22000      -10.83000
Cu        14.44000        9.02500       -9.02500
Cu        16.24500        7.22000       -9.02500
Cu        14.44000        7.22000       -7.22000
Cu        14.44000        9.02500       -5.41500
Cu        16.24500        7.22000       -5.41500
Cu        16.24500        9.02500       -7.22000
Cu        14.44000        7.22000       -3.61000
Cu        14.44000        9.02500       -1.80500
Cu        16.24500        7.22000       -1.80500
Cu        16.24500        9.02500       -3.61000
Cu        14.44000        7.22000        0.00000
Cu        14.44000        9.02500        1.80500
Cu        16.24500        7.22000        1.80500
Cu        16.24500        9.02500        0.00000
Cu        14.44000        7.22000        3.61000
Cu        14.44000        9.02500        5.41500
Cu        16.24500        7.22000        5.41500
Cu        16.24500        9.02500        3.61000
Cu        14.44000        7.22000        7.22000
Cu        14.44000        9.02500        9.02500
Cu        16.24500        7.22000        9.02500
Cu        16.24500        9.02500        7.22000
Cu        14.44000        7.22000       10.83000
Cu        14.44000        9.02500       12.63500
Cu        16.24500        7.22000       12.63500
Cu        16.24500        9.02500       10.83000
Cu        14.44000        7.22000       14.44000
Cu        14.44000       10.83000       -7.22000
Cu        14.44000       12.63500       -5.41500
Cu        16.24500       10.83000       -5.41500
Cu        14.44000       10.83000       -3.61000
Cu        14.44000       12.63500       -1.80500
Cu        16.24500       10.83000       -1.80500
Cu        16.24500       12.63500       -3.61000
Cu        14.44000       10.83000        0.00000
Cu        14.44000       12.63500        1.80500
Cu        16.24500       10.83000        1.80500
Cu        16.24500       12.63500        0.00000
Cu        14.44000       10.83000        3.61000
Cu        14.44000       12.63500        5.41500
Cu        16.24500       10.83000        5.41500
Cu        16.24500       12.63500        3.61000
Cu        14.44000       10.83000        7.22000
Cu        14.44000       12.63500        9.02500
Cu        16.24500       10.83000        9.02500
Cu        16.24500       12.63500        7.22000
Cu        14.44000       10.83000       10.83000
Cu        14.44000       14.44000       -3.61000
Cu        14.44000       16.24500       -1.80500
Cu        16.24500       14.44000       -1.80500
Cu        14.44000       14.44000        0.00000
Cu        14.44000       16.24500        1.80500
Cu        16.24500       14.44000        1.80500
Cu        16.24500       16.24500        0.00000
Cu        14.44000       14.44000        3.61000
Cu        14.44000       16.24500        5.41500
Cu        16.24500       14.44000        5.41500
Cu        16.24500       16.24500        3.61000
Cu        14.44000       14.44000        7.22000
Cu        14.44000       18.05000        0.00000
Cu        14.44000       19.85500        1.80500
Cu        16.24500       18.05000        1.80500
Cu        14.44000       18.05000        3.61000
Cu        18.05000      -12.63500       -1.80500
Cu        18.05000      -14.44000        0.00000
Cu        18.05000      -12.63500        1.80500
Cu        19.85500      -12.63500        0.00000
Cu        18.05000       -9.02500       -5.41500
Cu        18.05000      -10.83000       -3.61000
Cu        18.05000       -9.02500       -1.80500
Cu        19.85500      -10.83000       -1.80500
Cu        19.85500       -9.02500       -3.61000
Cu        18.05000      -10.83000        0.00000
Cu        18.05000       -9.02500        1.80500
Cu        19.85500      -10.83000        1.80500
Cu        19.85500       -9.02500        0.00000
Cu        18.05000      -10.83000        3.61000
Cu        18.05000       -9.02500        5.41500
Cu        19.85500       -9.02500        3.61000
Cu        18.05000       -5.41500       -9.02500
Cu        18.05000       -7.22000       -7.22000
Cu        18.05000       -5.41500       -5.41500
Cu        19.85500       -7.22000       -5.41500
Cu        19.85500       -5.41500       -7.22000
Cu        18.05000       -7.22000       -3.61000
Cu        18.05000       -5.41500       -1.80500
Cu        19.85500       -7.22000       -1.80500
Cu        19.85500       -5.41500       -3.61000
Cu        18.05000       -7.22000        0.00000
Cu        18.05000       -5.41500        1.80500
Cu        19.85500       -7.22000        1.80500
Cu        19.85500       -5.41500        0.00000
Cu        18.05000       -7.22000        3.61000
Cu        18.05000       -5.41500        5.41500
Cu        19.85500       -7.22000        5.41500
Cu        19.85500       -5.41500        3.61000
Cu        18.05000       -7.22000        7.22000
Cu        18.05000       -5.41500        9.02500
Cu        19.85500       -5.41500        7.22000
Cu        18.05000       -1.80500      -12.63500
Cu        18.05000       -3.61000      -10.83000
Cu        18.05000       -1.80500       -9.02500
Cu        19.85500       -3.61000       -9.02500
Cu        19.85500       -1.80500      -10.83000
Cu        18.05000       -3.61000       -7.22000
Cu        18.05000       -1.80500       -5.41500
Cu        19.85500       -3.61000       -5.41500
Cu        19.85500       -1.80500       -7.22000
Cu        18.05000       -3.61000       -3.61000
Cu        18.05000       -1.80500       -1.80500
Cu        19.85500       -3.61000       -1.80500
Cu        19.85500       -1.80500       -3.61000
Cu        18.05000       -3.61000        0.00000
Cu        18.05000       -1.80500        1.80500
Cu        19.85500       -3.61000        1.80500
Cu        19.85500       -1.80500        0.00000
Cu        18.05000       -3.61000        3.61000
Cu        18.05000       -1.80500        5.41500
Cu        19.85500       -3.61000        5.41500
Cu        19.85500       -1.80500        3.61000
Cu        18.05000       -3.61000        7.22000
Cu        18.05000       -1.80500        9.02500
Cu        19.85500       -3.61000        9.02500
Cu        19.85500       -1.80500        7.22000
Cu        18.05000       -3.61000       10.83000
Cu        18.05000       -1.80500       12.63500
Cu        19.85500       -1.80500       10.83000
Cu        18.05000       -0.00000      -14.44000
Cu        18.05000        1.80500      -12.63500
Cu        19.85500       -0.00000      -12.63500
Cu        18.05000       -0.00000      -10.83000
Cu        18.05000        1.80500       -9.02500
Cu        19.85500       -0.00000       -9.02500
Cu        19.85500        1.80500      -10.83000
Cu        18.05000       -0.00000       -7.22000
Cu        18.05000        1.80500       -5.41500
Cu        19.85500       -0.00000       -5.41500
Cu        19.85500        1.80500       -7.22000
Cu        18.05000       -0.00000       -3.61000
Cu        18.05000        1.80500       -1.80500
Cu        19.85500       -0.00000       -1.80500
Cu        19.85500        1.80500       -3.61000
Cu        18.05000        0.00000        0.00000
Cu        18.05000        1.80500        1.80500
Cu        19.85500        0.00000        1.80500
Cu        19.85500        1.80500        0.00000
Cu        18.05000        0.00000        3.61000
Cu        18.05000        1.80500        5.41500
Cu        19.85500        0.00000        5.41500
Cu        19.85500        1.80500        3.61000
Cu        18.05000        0.00000        7.22000
Cu        18.05000        1.80500        9.02500
Cu        19.85500        0.00000        9.02500
Cu        19.85500        1.80500        7.22000
Cu        18.05000        0.00000       10.83000
Cu        18.05000        1.80500       12.63500
Cu        19.85500        0.00000       12.63500
Cu        19.85500        1.80500       10.83000
Cu        18.05000        0.00000       14.44000
Cu        18.05000        1.80500       16.24500
Cu        19.85500        1.80500       14.44000
Cu        18.05000        3.61000      -10.83000
Cu        18.05000        5.41500       -9.02500
Cu        19.85500        3.61000       -9.02500
Cu        18.05000        3.61000       -7.22000
Cu        18.05000        5.41500       -5.41500
Cu        19.85500        3.61000       -5.41500
Cu        19.85500        5.41500       -7.22000
Cu        18.05000        3.61000       -3.61000
Cu        18.05000        5.41500       -1.80500
Cu        19.85500        3.61000       -1.80500
Cu        19.85500        5.41500       -3.61000
Cu        18.05000        3.61000        0.00000
Cu        18.05000        5.41500        1.80500
Cu        19.85500        3.61000        1.80500
Cu        19.85500        5.41500        0.00000
Cu        18.05000        3.61000        3.61000
Cu        18.05000        5.41500        5.41500
Cu        19.85500        3.61000        5.41500
Cu        19.85500        5.41500        3.61000
Cu        18.05000        3.61000        7.22000
Cu        18.05000        5.41500        9.02500
Cu        19.85500        3.61000        9.02500
Cu        19.85500        5.41500        7.22000
Cu        18.05000        3.61000       10.83000
Cu        18.05000        5.41500       12.63500
Cu        19.85500        3.61000       12.63500
Cu        19.85500        5.41500       10.83000
Cu        18.05000        3.61000       14.44000
Cu        18.05000        7.22000       -7.22000
Cu        18.05000        9.02500       -5.41500
Cu        19.85500        7.22000       -5.41500
Cu        18.05000        7.22000       -3.61000
Cu        18.05000        9.02500       -1.80500
Cu        19.85500        7.22000       -1.80500
Cu        19.85500        9.02500       -3.61000
Cu        18.05000        7.22000        0.00000
Cu        18.05000        9.02500        1.80500
Cu        19.85500        7.22000        1.80500
Cu        19.85500        9.02500        0.00000
Cu        18.05000        7.22000        3.61000
Cu        18.05000        9.02500        5.41500
Cu        19.85500        7.22000        5.41500
Cu        19.85500        9.02500        3.61000
Cu        18.05000        7.22000        7.22000
Cu        18.05000        9.02500        9.02500
Cu        19.85500        7.22000        9.02500
Cu        19.85500        9.02500        7.22000
Cu        18.05000        7.22000       10.83000
Cu        18.05000       10.83000       -3.61000
Cu        18.05000       12.63500       -1.80500
Cu        19.85500       10.83000       -1.80500
Cu        18.05000       10.83000        0.00000
Cu        18.05000       12.63500        1.80500
Cu        19.85500       10.83000        1.80500
Cu        19.85500       12.63500        0.00000
Cu        18.05000       10.83000        3.61000
Cu        18.05000       12.63500        5.41500
Cu        19.85500       10.83000        5.41500
Cu        19.85500       12.63500        3.61000
Cu        18.05000       10.83000        7.22000
Cu        18.05000       14.44000        0.00000
Cu        18.05000       16.24500        1.80500
Cu        19.85500       14.44000        1.80500
Cu        18.05000       14.44000        3.61000
