120

O          2.83853        6.68774        6.80038
O          8.50389        5.16001       13.18114
O          6.61519        4.83260        5.07002
O          3.83157       11.61076        6.18709
O         10.65090       13.27350        4.35092
O          2.48834        7.93468        1.97757
Si         3.82512        1.15714        6.27490
O          7.58286        4.89111        4.29847
Si         9.10937        3.91755        5.13183
Si        12.76191        6.36150        6.00468
Si         9.96744        5.80258        5.72269
O         13.66577       12.56001       10.99624
O          2.50046        4.75707       10.26944
O          4.16170        5.85270        6.98314
Si         5.90923        8.63625        8.79039
O          9.10345        7.24574        3.59076
O          5.74894        5.61471        0.01977
O          9.24601        1.27845        6.09003
O          9.82985       10.83225        7.26569
O          9.48668        9.64647       10.20786
O         13.23961        6.78177        9.46291
O         13.21915        0.73619        2.13031
O          4.27967        8.99463        8.21139
O          7.72390        3.25799       12.03496
O         13.37129        1.99021       13.09522
Si         6.20646       11.75601        9.13478
O          6.54484        9.16910       11.66007
O         11.61974        1.81676        7.37948
Si         1.32468       10.27953       11.07003
Si         6.73192        5.57577        1.89665
O          9.45651        4.76027        6.95499
O          4.49547        5.50356        4.16281
Si        10.88880        2.29330       13.18235
O          5.74916        3.57439        6.20946
Si         7.20383       10.73754       12.02903
O         11.03533        6.36522        7.23859
O          1.52431        6.38280       11.07151
O         10.78345        6.89950       12.29487
Si         2.73220        9.35213       12.13949
O         11.09198        3.71601       13.01296
O          3.28318        0.56335        5.16290
O         12.13390        5.34734        3.83224
Si         3.22986        6.59251        2.43572
O         11.04046        5.52196        9.93859
O         11.66219        2.03898       10.90147
O          9.12806        8.87909        0.95960
O          6.87315        4.94781        6.55498
Si        13.07484        8.31199       10.22344
O         10.08989        0.57606       11.37948
Si         0.09898        2.47239        5.82336
Si         0.76904        2.95034        7.50259
O         11.26958        8.42168        5.59323
O         11.47960        8.13000       13.05034
O          2.57733        1.77570       11.25609
O          3.19300        8.04861        9.13374
O          6.19300        1.83565       11.05875
Si         5.79786        2.34904        0.26545
O         10.83911        9.47483       11.87483
Si         6.76341        0.46661        3.05650
O          7.38068        7.62870       11.04309
Si         7.24137       13.51219        6.75586
Si         3.80031        3.64474        2.34318
Si         7.30643       12.14816       13.64142
O         12.59824        8.63858        2.73715
Si         8.10754        2.33174        2.28493
O          9.21426        5.42618       11.19391
Si        13.08839        7.61721        4.75826
O          2.28242        9.76993        0.49231
O          6.41407        3.90112        5.35963
O         11.19440        7.32232        0.62031
Si        11.38589        0.11385        8.84717
O          5.01080       11.95677        0.88159
O          8.82153        2.07138       13.84693
Si         0.32134        7.17471        7.27087
O          4.53968        9.65389        1.36867
O          5.91754        7.85350        1.86470
O          2.98207        4.59151        0.16338
O          8.18023        4.14613       13.03444
Si         0.54010       13.75355       13.52708
O          3.34781        7.64131        0.14660
O          0.99375       11.50991        4.71221
O         12.83977        3.36582        6.35472
O         12.00264        4.85817        8.44723
O          2.60010       12.09171       12.64633
Si         5.52740        3.84134        7.57041
O          1.67156        6.24071       12.61946
Si         9.61098        0.42179        2.96320
O          9.31946        4.48678        0.98853
O         10.25245        4.99922        2.52982
Si         5.79347        9.64455        2.51366
O          7.29880        7.21952        2.75043
O          7.41321        9.01327        4.39317
O          7.06381       10.21359        9.54776
Si         5.24303       13.28287        2.85844
Si        13.55254       12.73025        2.86668
Si         0.71722        5.30033        0.02570
O          9.00862        2.45225        8.25333
O          7.46079       10.41957        7.45511
Si         3.35589       13.11224        0.08559
Si         8.36333       10.27149        3.98490
O          9.86663        5.36191        9.09622
O          0.05765        2.03597        2.03291
O          8.22584        8.44213        0.54912
O          2.05487       13.69918        2.87797
O         11.34508        9.99448        8.81981
Si         3.70788       10.54610        2.56204
Si         2.60547       11.22885        4.26307
Si         1.26143        3.41420        1.79679
O          8.25926        9.41695        1.27350
Si         6.22992       12.41017        5.39943
O          6.40561        9.17098        6.16362
Si         0.14527        1.45095        3.62378
O          9.49049       10.42349       11.31943
Si         3.35363        6.90716       10.88332
O         10.74346        2.01863        7.82974
O          6.66402        4.00974        4.36526
O          7.11185        0.52686        8.71379
O         11.73531        5.17176        5.83717
O          9.41933       12.36483        1.69182
Si        11.57682        1.28384        1.37663
